! Synthetic calibration acquisition fixture: NOT a frequency-converting S2P model.
! RF=10..20 GHz; LO=5 GHz; IF=RF-LO. 201 points, 50 MHz step.
! Only S11 is meaningful. S21=S12=S22=0 are unused matched/isolated placeholders.
! Use ideal Open(+1), Short(-1), Load(0), zero offsets, Z0=50 ohm.
! Order: frequency_Hz S11_Re S11_Im S21_Re S21_Im S12_Re S12_Im S22_Re S22_Im
# Hz S RI R 50
10000000000 0.047766824456280305 0.014776010333066978 0 0 0 0 0 0
10050000000 0.047722281541224279 0.014919244099488577 0 0 0 0 0 0
10100000000 0.04767730912595651 0.015062343592813984 0 0 0 0 0 0
10150000000 0.047631907615228425 0.015205307525148726 0 0 0 0 0 0
10200000000 0.047586077417653326 0.015348134609818379 0 0 0 0 0 0
10250000000 0.047539818945702667 0.015490823561380145 0 0 0 0 0 0
10300000000 0.047493132615702392 0.01563337309563442 0 0 0 0 0 0
10350000000 0.047446018847829154 0.015775781929636357 0 0 0 0 0 0
10400000000 0.047398478066106545 0.015918048781707415 0 0 0 0 0 0
10450000000 0.047350510698401287 0.016060172371446885 0 0 0 0 0 0
10500000000 0.047302117176419356 0.016202151419743415 0 0 0 0 0 0
10550000000 0.047253297935702127 0.016343984648786537 0 0 0 0 0 0
10600000000 0.047204053415622428 0.016485670782078139 0 0 0 0 0 0
10650000000 0.047154384059380626 0.01662720854444398 0 0 0 0 0 0
10700000000 0.047104290314000569 0.016768596662045158 0 0 0 0 0 0
10750000000 0.047053772630325653 0.016909833862389562 0 0 0 0 0 0
10800000000 0.047002831463014677 0.017050918874343349 0 0 0 0 0 0
10850000000 0.04695146727053779 0.01719185042814236 0 0 0 0 0 0
10900000000 0.046899680515172404 0.017332627255403559 0 0 0 0 0 0
10950000000 0.046847471662998949 0.017473248089136459 0 0 0 0 0 0
11000000000 0.046794841183896742 0.017613711663754496 0 0 0 0 0 0
11050000000 0.046741789551539757 0.017754016715086456 0 0 0 0 0 0
11100000000 0.046688317243392306 0.017894161980387822 0 0 0 0 0 0
11150000000 0.046634424740704811 0.018034146198352148 0 0 0 0 0 0
11200000000 0.046580112528509438 0.018173968109122415 0 0 0 0 0 0
11250000000 0.046525381095615714 0.01831362645430238 0 0 0 0 0 0
11300000000 0.046470230934606185 0.018453119976967868 0 0 0 0 0 0
11350000000 0.046414662541831915 0.018592447421678128 0 0 0 0 0 0
11400000000 0.046358676417408068 0.018731607534487087 0 0 0 0 0 0
11450000000 0.046302273065209384 0.018870599062954675 0 0 0 0 0 0
11500000000 0.046245452992865657 0.019009420756158073 0 0 0 0 0 0
11550000000 0.046188216711757143 0.019148071364702979 0 0 0 0 0 0
11600000000 0.046130564737010001 0.019286549640734854 0 0 0 0 0 0
11650000000 0.046072497587491601 0.019424854337950145 0 0 0 0 0 0
11700000000 0.046014015785805912 0.019562984211607511 0 0 0 0 0 0
11750000000 0.045955119858288734 0.019700938018539022 0 0 0 0 0 0
11800000000 0.045895810335003041 0.019838714517161349 0 0 0 0 0 0
11850000000 0.04583608774973412 0.019976312467486934 0 0 0 0 0 0
11900000000 0.045775952639984852 0.020113730631135151 0 0 0 0 0 0
11950000000 0.045715405546970803 0.020250967771343456 0 0 0 0 0 0
12000000000 0.045654447015615413 0.02038802265297851 0 0 0 0 0 0
12050000000 0.045593077594545055 0.020524894042547308 0 0 0 0 0 0
12100000000 0.045531297836084096 0.020661580708208269 0 0 0 0 0 0
12150000000 0.045469108296249949 0.020798081419782316 0 0 0 0 0 0
12200000000 0.045406509534748049 0.020934394948763976 0 0 0 0 0 0
12250000000 0.045343502114966835 0.021070520068332405 0 0 0 0 0 0
12300000000 0.045280086603972647 0.021206455553362442 0 0 0 0 0 0
12350000000 0.045216263572504675 0.021342200180435641 0 0 0 0 0 0
12400000000 0.045152033594969748 0.021477752727851279 0 0 0 0 0 0
12450000000 0.04508739724943725 0.021613111975637339 0 0 0 0 0 0
12500000000 0.045022355117633847 0.021748276705561509 0 0 0 0 0 0
12550000000 0.044956907784938285 0.02188324570114213 0 0 0 0 0 0
12600000000 0.044891055840376115 0.022018017747659151 0 0 0 0 0 0
12650000000 0.044824799876614405 0.022152591632165066 0 0 0 0 0 0
12700000000 0.044758140489956362 0.022286966143495821 0 0 0 0 0 0
12750000000 0.044691078280336034 0.022421140072281721 0 0 0 0 0 0
12800000000 0.044623613851312846 0.022555112210958312 0 0 0 0 0 0
12850000000 0.044555747810066201 0.022688881353777255 0 0 0 0 0 0
12900000000 0.044487480767390022 0.022822446296817164 0 0 0 0 0 0
12950000000 0.04441881333768722 0.022955805837994447 0 0 0 0 0 0
13000000000 0.044349746138964211 0.023088958777074148 0 0 0 0 0 0
13050000000 0.044280279792825311 0.0232219039156807 0 0 0 0 0 0
13100000000 0.044210414924467173 0.023354640057308758 0 0 0 0 0 0
13150000000 0.044140152162673127 0.023487166007333946 0 0 0 0 0 0
13200000000 0.04406949213980757 0.023619480573023606 0 0 0 0 0 0
13250000000 0.043998435491810213 0.023751582563547542 0 0 0 0 0 0
13300000000 0.043926982858190425 0.023883470789988728 0 0 0 0 0 0
13350000000 0.043855134882021418 0.024015144065354016 0 0 0 0 0 0
13400000000 0.043782892209934504 0.024146601204584818 0 0 0 0 0 0
13450000000 0.043710255492113229 0.024277841024567773 0 0 0 0 0 0
13500000000 0.043637225382287564 0.024408862344145375 0 0 0 0 0 0
13550000000 0.043563802537728014 0.024539663984126645 0 0 0 0 0 0
13600000000 0.043489987619239681 0.024670244767297698 0 0 0 0 0 0
13650000000 0.043415781291156336 0.024800603518432371 0 0 0 0 0 0
13700000000 0.043341184221334421 0.024930739064302779 0 0 0 0 0 0
13750000000 0.043266197081147068 0.025060650233689891 0 0 0 0 0 0
13800000000 0.043190820545478029 0.025190335857394067 0 0 0 0 0 0
13850000000 0.043115055292715622 0.025319794768245547 0 0 0 0 0 0
13900000000 0.04303890200474661 0.025449025801115036 0 0 0 0 0 0
13950000000 0.042962361366950065 0.025578027792924087 0 0 0 0 0 0
14000000000 0.04288543406819121 0.025706799582655662 0 0 0 0 0 0
14050000000 0.042808120800815225 0.025835340011364501 0 0 0 0 0 0
14100000000 0.042730422260640978 0.025963647922187628 0 0 0 0 0 0
14150000000 0.042652339146954821 0.02609172216035472 0 0 0 0 0 0
14200000000 0.042573872162504245 0.026219561573198488 0 0 0 0 0 0
14250000000 0.042495022013491583 0.026347165010165065 0 0 0 0 0 0
14300000000 0.042415789409567632 0.026474531322824409 0 0 0 0 0 0
14350000000 0.04233617506382531 0.026601659364880539 0 0 0 0 0 0
14400000000 0.042256179692793175 0.026728547992181956 0 0 0 0 0 0
14450000000 0.042175804016429036 0.026855196062731852 0 0 0 0 0 0
14500000000 0.042095048758113436 0.026981602436698466 0 0 0 0 0 0
14550000000 0.042013914644643158 0.027107765976425266 0 0 0 0 0 0
14600000000 0.041932402406224673 0.027233685546441261 0 0 0 0 0 0
14650000000 0.04185051277646757 0.027359360013471164 0 0 0 0 0 0
14700000000 0.041768246492377981 0.02748478824644562 0 0 0 0 0 0
14750000000 0.041685604294351884 0.027609969116511382 0 0 0 0 0 0
14800000000 0.041602586926168521 0.027734901497041459 0 0 0 0 0 0
14850000000 0.041519195134983637 0.027859584263645279 0 0 0 0 0 0
14900000000 0.041435429671322792 0.027984016294178772 0 0 0 0 0 0
14950000000 0.041351291289074596 0.028108196468754516 0 0 0 0 0 0
15000000000 0.041266780745483921 0.028232123669751769 0 0 0 0 0 0
15050000000 0.041181898801145082 0.028355796781826561 0 0 0 0 0 0
15100000000 0.041096646219995016 0.028479214691921717 0 0 0 0 0 0
15150000000 0.041011023769306369 0.028602376289276882 0 0 0 0 0 0
15200000000 0.040925032219680628 0.02872528046543851 0 0 0 0 0 0
15250000000 0.040838672345041148 0.02884792611426984 0 0 0 0 0 0
15300000000 0.040751944922626224 0.028970312131960871 0 0 0 0 0 0
15350000000 0.040664850732982073 0.02909243741703826 0 0 0 0 0 0
15400000000 0.040577390559955816 0.02921430087037527 0 0 0 0 0 0
15450000000 0.040489565190688415 0.029335901395201643 0 0 0 0 0 0
15500000000 0.040401375415607593 0.029457237897113478 0 0 0 0 0 0
15550000000 0.04031282202842075 0.029578309284083074 0 0 0 0 0 0
15600000000 0.040223905826107763 0.029699114466468769 0 0 0 0 0 0
15650000000 0.040134627608913849 0.029819652357024731 0 0 0 0 0 0
15700000000 0.040044988180342363 0.029939921870910758 0 0 0 0 0 0
15750000000 0.039954988347147558 0.030059921925702057 0 0 0 0 0 0
15800000000 0.039864628919327329 0.030179651441398909 0 0 0 0 0 0
15850000000 0.039773910710115906 0.03029910934043652 0 0 0 0 0 0
15900000000 0.039682834535976569 0.030418294547694569 0 0 0 0 0 0
15950000000 0.039591401216594269 0.030537205990507028 0 0 0 0 0 0
16000000000 0.039499611574868261 0.030655842598671684 0 0 0 0 0 0
16050000000 0.039407466436904695 0.030774203304459891 0 0 0 0 0 0
16100000000 0.039314966632009202 0.030892287042626077 0 0 0 0 0 0
16150000000 0.039222112992679393 0.031010092750417408 0 0 0 0 0 0
16200000000 0.039128906354597412 0.031127619367583292 0 0 0 0 0 0
16250000000 0.039035347556622343 0.031244865836384996 0 0 0 0 0 0
16300000000 0.038941437440782767 0.031361831101605057 0 0 0 0 0 0
16350000000 0.038847176852269072 0.03147851411055691 0 0 0 0 0 0
16400000000 0.038752566639425924 0.03159491381309424 0 0 0 0 0 0
16450000000 0.038657607653744597 0.031711029161620524 0 0 0 0 0 0
16500000000 0.038562300749855338 0.031826859111098393 0 0 0 0 0 0
16550000000 0.038466646785519615 0.031942402619059111 0 0 0 0 0 0
16600000000 0.038370646621622477 0.032057658645611851 0 0 0 0 0 0
16650000000 0.038274301122164733 0.032172626153453177 0 0 0 0 0 0
16700000000 0.038177611154255262 0.03228730410787628 0 0 0 0 0 0
16750000000 0.038080577588103084 0.032401691476780368 0 0 0 0 0 0
16800000000 0.037983201297009668 0.032515787230679855 0 0 0 0 0 0
16850000000 0.037885483157360955 0.03262959034271376 0 0 0 0 0 0
16900000000 0.037787424048619567 0.032743099788654827 0 0 0 0 0 0
16950000000 0.037689024853316801 0.032856314546918813 0 0 0 0 0 0
17000000000 0.037590286457044757 0.032969233598573656 0 0 0 0 0 0
17050000000 0.037491209748448322 0.033081855927348656 0 0 0 0 0 0
17100000000 0.037391795619217232 0.033194180519643617 0 0 0 0 0 0
17150000000 0.037292044964077953 0.033306206364537953 0 0 0 0 0 0
17200000000 0.037191958680785724 0.033417932453799828 0 0 0 0 0 0
17250000000 0.037091537670116408 0.03352935778189519 0 0 0 0 0 0
17300000000 0.036990782835858431 0.033640481345996835 0 0 0 0 0 0
17350000000 0.036889695084804629 0.033751302145993443 0 0 0 0 0 0
17400000000 0.036788275326744058 0.033861819184498557 0 0 0 0 0 0
17450000000 0.03668652447445387 0.033972031466859579 0 0 0 0 0 0
17500000000 0.036584443443691043 0.034081938001166705 0 0 0 0 0 0
17550000000 0.036482033153184178 0.034191537798261881 0 0 0 0 0 0
17600000000 0.036379294524625176 0.034300829871747665 0 0 0 0 0 0
17650000000 0.036276228482661023 0.034409813237996127 0 0 0 0 0 0
17700000000 0.03617283595488538 0.03451848691615772 0 0 0 0 0 0
17750000000 0.036069117871830314 0.034626849928170063 0 0 0 0 0 0
17800000000 0.03596507516695787 0.034734901298766788 0 0 0 0 0 0
17850000000 0.035860708776651685 0.034842640055486283 0 0 0 0 0 0
17900000000 0.035756019640208574 0.034950065228680466 0 0 0 0 0 0
17950000000 0.035651008699830053 0.0350571758515235 0 0 0 0 0 0
18000000000 0.035545676900613866 0.03516397096002051 0 0 0 0 0 0
18050000000 0.035440025190545524 0.035270449593016236 0 0 0 0 0 0
18100000000 0.035334054520489676 0.035376610792203701 0 0 0 0 0 0
18150000000 0.035227765844181656 0.035482453602132827 0 0 0 0 0 0
18200000000 0.035121160118218822 0.035587977070219039 0 0 0 0 0 0
18250000000 0.035014238302051991 0.035693180246751839 0 0 0 0 0 0
18300000000 0.034907001357976787 0.035798062184903348 0 0 0 0 0 0
18350000000 0.034799450251124985 0.035902621940736831 0 0 0 0 0 0
18400000000 0.03469158594945581 0.036006858573215193 0 0 0 0 0 0
18450000000 0.034583409423747276 0.036110771144209429 0 0 0 0 0 0
18500000000 0.03447492164758735 0.036214358718507131 0 0 0 0 0 0
18550000000 0.034366123597365315 0.036317620363820795 0 0 0 0 0 0
18600000000 0.034257016252262865 0.036420555150796348 0 0 0 0 0 0
18650000000 0.034147600594245382 0.036523162153021364 0 0 0 0 0 0
18700000000 0.03403787760805304 0.036625440447033551 0 0 0 0 0 0
18750000000 0.033927848281191997 0.03672738911232893 0 0 0 0 0 0
18800000000 0.033817513603925424 0.036829007231370212 0 0 0 0 0 0
18850000000 0.033706874569264689 0.036930293889594998 0 0 0 0 0 0
18900000000 0.033595932172960349 0.03703124817542406 0 0 0 0 0 0
18950000000 0.033484687413493232 0.037131869180269499 0 0 0 0 0 0
19000000000 0.033373141292065402 0.037232155998542973 0 0 0 0 0 0
19050000000 0.033261294812591227 0.037332107727663759 0 0 0 0 0 0
19100000000 0.033149148981688241 0.037431723468066995 0 0 0 0 0 0
19150000000 0.033036704808668181 0.037531002323211687 0 0 0 0 0 0
19200000000 0.03292396330552784 0.037629943399588806 0 0 0 0 0 0
19250000000 0.032810925486939986 0.037728545806729318 0 0 0 0 0 0
19300000000 0.032697592370244222 0.037826808657212246 0 0 0 0 0 0
19350000000 0.032583964975437842 0.03792473106667258 0 0 0 0 0 0
19400000000 0.032470044325166619 0.038022312153809308 0 0 0 0 0 0
19450000000 0.032355831444715641 0.038119551040393315 0 0 0 0 0 0
19500000000 0.032241327362000069 0.038216446851275253 0 0 0 0 0 0
19550000000 0.032126533107555859 0.038312998714393504 0 0 0 0 0 0
19600000000 0.032011449714530536 0.038409205760781918 0 0 0 0 0 0
19650000000 0.031896078218673858 0.038505067124577769 0 0 0 0 0 0
19700000000 0.031780419658328521 0.038600581943029393 0 0 0 0 0 0
19750000000 0.031664475074420766 0.038695749356504085 0 0 0 0 0 0
19800000000 0.03154824551045108 0.038790568508495771 0 0 0 0 0 0
19850000000 0.031431732012484746 0.038885038545632716 0 0 0 0 0 0
19900000000 0.031314935629142469 0.038979158617685215 0 0 0 0 0 0
19950000000 0.03119785741159091 0.039072927877573271 0 0 0 0 0 0
20000000000 0.031080498413533227 0.039166345481374168 0 0 0 0 0 0
