! Synthetic calibration acquisition fixture: NOT a frequency-converting S2P model.
! RF=10..20 GHz; LO=5 GHz; IF=RF-LO. 201 points, 50 MHz step.
! Only S11 is meaningful. S21=S12=S22=0 are unused matched/isolated placeholders.
! Use ideal Open(+1), Short(-1), Load(0), zero offsets, Z0=50 ohm.
! Order: frequency_Hz S11_Re S11_Im S21_Re S21_Im S12_Re S12_Im S22_Re S22_Im
# Hz S RI R 50
10000000000 -0.050416420074343687 0.040541041025635882 0 0 0 0 0 0
10050000000 -0.05056906774415186 0.051720741006729576 0 0 0 0 0 0
10100000000 -0.050002379423553706 0.062904257469460934 0 0 0 0 0 0
10150000000 -0.048716741190005436 0.074047629715866758 0 0 0 0 0 0
10200000000 -0.046715130054958164 0.085106918006211868 0 0 0 0 0 0
10250000000 -0.044003118209259881 0.096038348114118238 0 0 0 0 0 0
10300000000 -0.040588870058132422 0.10679845704783557 0 0 0 0 0 0
10350000000 -0.036483131864485853 0.11734423967321578 0 0 0 0 0 0
10400000000 -0.031699213817243235 0.12763329595169656 0 0 0 0 0 0
10450000000 -0.026252964341542055 0.13762397848238472 0 0 0 0 0 0
10500000000 -0.020162736470444198 0.14727554001134324 0 0 0 0 0 0
10550000000 -0.013449346103428891 0.15654828054364833 0 0 0 0 0 0
10600000000 -0.0061360219857194143 0.16540369366494032 0 0 0 0 0 0
10650000000 0.0017516527453066422 0.17380461164934541 0 0 0 0 0 0
10700000000 0.010185807584530339 0.18171534890010765 0 0 0 0 0 0
10750000000 0.019136360372501621 0.1891018432384258 0 0 0 0 0 0
10800000000 0.028571101792226172 0.19593179452521692 0 0 0 0 0 0
10850000000 0.038455788715670514 0.20217480007028812 0 0 0 0 0 0
10900000000 0.048754246433941627 0.20780248625414929 0 0 0 0 0 0
10950000000 0.059428479768278565 0.212788635759947 0 0 0 0 0 0
11000000000 0.07043879301771501 0.21710930978729218 0 0 0 0 0 0
11050000000 0.081743918653572251 0.22074296459663226 0 0 0 0 0 0
11100000000 0.093301154620907503 0.22367056171287239 0 0 0 0 0 0
11150000000 0.10506651005283517 0.22587567110077114 0 0 0 0 0 0
11200000000 0.11699485914549433 0.22734456661282079 0 0 0 0 0 0
11250000000 0.12904010287966541 0.2280663130034655 0 0 0 0 0 0
11300000000 0.14115533821002432 0.22803284380220373 0 0 0 0 0 0
11350000000 0.1532930342752491 0.22723902934292192 0 0 0 0 0 0
11400000000 0.16540521511220499 0.22568273425825136 0 0 0 0 0 0
11450000000 0.17744364828587667 0.22336486376631279 0 0 0 0 0 0
11500000000 0.18936003877430335 0.22028939810334469 0 0 0 0 0 0
11550000000 0.20110622737530875 0.21646341448977044 0 0 0 0 0 0
11600000000 0.2126343928301592 0.21189709605951151 0 0 0 0 0 0
11650000000 0.22389725678937705 0.20660372723300691 0 0 0 0 0 0
11700000000 0.23484829067875215 0.20059967507351006 0 0 0 0 0 0
11750000000 0.24544192346017085 0.19390435623378974 0 0 0 0 0 0
11800000000 0.25563374922327692 0.18654018917618367 0 0 0 0 0 0
11850000000 0.26538073349124502 0.17853253143275538 0 0 0 0 0 0
11900000000 0.27464141707817818 0.16990960176364431 0 0 0 0 0 0
11950000000 0.28337611629784165 0.16070238717000612 0 0 0 0 0 0
12000000000 0.29154711829465163 0.15094453482247241 0 0 0 0 0 0
12050000000 0.29911887024894118 0.14067222907596669 0 0 0 0 0 0
12100000000 0.30605816120041512 0.12992405385597672 0 0 0 0 0 0
12150000000 0.31233429523708739 0.11874084081887168 0 0 0 0 0 0
12200000000 0.317919254812497 0.1071655038083001 0 0 0 0 0 0
12250000000 0.32278785298208823 0.09524286024977123 0 0 0 0 0 0
12300000000 0.32691787339062056 0.083019440244739173 0 0 0 0 0 0
12350000000 0.33029019689644895 0.07054328424237534 0 0 0 0 0 0
12400000000 0.33288891378544916 0.057863730280197159 0 0 0 0 0 0
12450000000 0.33470142060695784 0.045031191892207875 0 0 0 0 0 0
12500000000 0.33571850075589549 0.032096927883700804 0 0 0 0 0 0
12550000000 0.33593438802855474 0.019112805263821128 0 0 0 0 0 0
12600000000 0.33534681249349119 0.0061310567089720124 0 0 0 0 0 0
12650000000 0.3339570281424602 -0.006795965999187633 0 0 0 0 0 0
12700000000 0.33176982191815974 -0.019616041059236946 0 0 0 0 0 0
12750000000 0.32879350385421507 -0.032277326712492491 0 0 0 0 0 0
12800000000 0.32503987820684321 -0.044728610705875138 0 0 0 0 0 0
12850000000 0.32052419560523915 -0.056919557563500756 0 0 0 0 0 0
12900000000 0.31526508639718936 -0.068800952075884603 0 0 0 0 0 0
12950000000 0.30928447551587485 -0.080324937432016408 0 0 0 0 0 0
13000000000 0.30260747934144183 -0.091445246451671486 0 0 0 0 0 0
13050000000 0.29526228517480602 -0.10211742442298703 0 0 0 0 0 0
13100000000 0.28728001407953485 -0.11229904211299419 0 0 0 0 0 0
13150000000 0.27869456797875058 -0.12194989759577668 0 0 0 0 0 0
13200000000 0.26954246201621856 -0.13103220563322507 0 0 0 0 0 0
13250000000 0.25986264330259556 -0.13951077344587171 0 0 0 0 0 0
13300000000 0.24969629726792852 -0.14735316182464595 0 0 0 0 0 0
13350000000 0.23908664292872858 -0.15452983065712639 0 0 0 0 0 0
13400000000 0.2280787184514059 -0.16101426807234781 0 0 0 0 0 0
13450000000 0.21671915845279049 -0.16678310254475576 0 0 0 0 0 0
13500000000 0.20505596452241906 -0.1718161974386978 0 0 0 0 0 0
13550000000 0.1931382704799898 -0.17609672761810152 0 0 0 0 0 0
13600000000 0.18101610389485523 -0.17961123788992214 0 0 0 0 0 0
13650000000 0.16874014539285218 -0.18234968319276423 0 0 0 0 0 0
13700000000 0.15636148725960466 -0.18430545058211684 0 0 0 0 0 0
13750000000 0.14393139281929596 -0.18547536319925487 0 0 0 0 0 0
13800000000 0.13150105802463019 -0.18585966654060643 0 0 0 0 0 0
13850000000 0.11912137663825939 -0.18546199746688083 0 0 0 0 0 0
13900000000 0.10684271031948075 -0.18428933650534557 0 0 0 0 0 0
13950000000 0.094714664853732755 -0.1823519441032993 0 0 0 0 0 0
14000000000 0.082785873677673733 -0.17966328158519113 0 0 0 0 0 0
14050000000 0.071103789760786545 -0.17623991764935248 0 0 0 0 0 0
14100000000 0.059714486806954334 -0.17210142131245948 0 0 0 0 0 0
14150000000 0.048662470637682143 -0.16727024227039894 0 0 0 0 0 0
14200000000 0.03799050151405578 -0.16177157969305681 0 0 0 0 0 0
14250000000 0.027739428048438795 -0.15563324050778116 0 0 0 0 0 0
14300000000 0.017948033250666691 -0.14888548825214815 0 0 0 0 0 0
14350000000 0.0086528931482917001 -0.14156088359153618 0 0 0 0 0 0
14400000000 -0.00011175168258042295 -0.13369411760144886 0 0 0 0 0 0
14450000000 -0.0083141114391356297 -0.12532183890910883 0 0 0 0 0 0
14500000000 -0.015924949125332974 -0.11648247577432562 0 0 0 0 0 0
14550000000 -0.022917669246766401 -0.10721605416678469 0 0 0 0 0 0
14600000000 -0.029268393201850249 -0.097564012866591748 0 0 0 0 0 0
14650000000 -0.034956021483360751 -0.087569016577996497 0 0 0 0 0 0
14700000000 -0.039962282876931363 -0.077274768003638888 0 0 0 0 0 0
14750000000 -0.04427177090882229 -0.06672581977931219 0 0 0 0 0 0
14800000000 -0.04787196785400865 -0.055967387118031481 0 0 0 0 0 0
14850000000 -0.05075325666726143 -0.045045161958008423 0 0 0 0 0 0
14900000000 -0.05290892124447092 -0.034005129352810144 0 0 0 0 0 0
14950000000 -0.054335135459085818 -0.02289338678433283 0 0 0 0 0 0
15000000000 -0.055030941449413388 -0.011755967020993522 0 0 0 0 0 0
15050000000 -0.054998217656911381 -0.00063866508543572453 0 0 0 0 0 0
15100000000 -0.054241637133822913 0.010413130161311464 0 0 0 0 0 0
15150000000 -0.052768616650936594 0.021354599368323693 0 0 0 0 0 0
15200000000 -0.050589257143310008 0.032141650579238026 0 0 0 0 0 0
15250000000 -0.047716276033916184 0.042731071307964226 0 0 0 0 0 0
15300000000 -0.044164931972829266 0.053080674510284448 0 0 0 0 0 0
15350000000 -0.039952942523234315 0.06314943820240676 0 0 0 0 0 0
15400000000 -0.035100395315709611 0.072897638520801944 0 0 0 0 0 0
15450000000 -0.029629653179375784 0.082286976057584782 0 0 0 0 0 0
15500000000 -0.023565253743106238 0.091280695342168455 0 0 0 0 0 0
15550000000 -0.016933803982520493 0.099843697372853688 0 0 0 0 0 0
15600000000 -0.0097638701693776725 0.10794264513138892 0 0 0 0 0 0
15650000000 -0.0020858636596882002 0.11554606203937361 0 0 0 0 0 0
15700000000 0.0060680770642252274 0.12262442333773851 0 0 0 0 0 0
15750000000 0.014664207703984185 0.12915024038950235 0 0 0 0 0 0
15800000000 0.023667302435534856 0.13509813792172207 0 0 0 0 0 0
15850000000 0.033040780828711508 0.14044492423514335 0 0 0 0 0 0
15900000000 0.042746837065717858 0.14516965441973162 0 0 0 0 0 0
15950000000 0.052746571148063921 0.14925368662117566 0 0 0 0 0 0
16000000000 0.063000121800183828 0.15268073140785077 0 0 0 0 0 0
16050000000 0.073466800795324 0.15543689428980295 0 0 0 0 0 0
16100000000 0.084105228445114116 0.1575107114413265 0 0 0 0 0 0
16150000000 0.094873470008366378 0.15889317867688363 0 0 0 0 0 0
16200000000 0.10572917278693653 0.15957777372671689 0 0 0 0 0 0
16250000000 0.11662970368680044 0.15956047185378217 0 0 0 0 0 0
16300000000 0.12753228703077868 0.15883975484785462 0 0 0 0 0 0
16350000000 0.1383941424154766 0.15741661342607657 0 0 0 0 0 0
16400000000 0.14917262240896872 0.15529454306211163 0 0 0 0 0 0
16450000000 0.15982534988751368 0.15247953325869096 0 0 0 0 0 0
16500000000 0.17031035480913073 0.14898005027096092 0 0 0 0 0 0
16550000000 0.18058621021920915 0.14480701328093015 0 0 0 0 0 0
16600000000 0.19061216727851965 0.13997376401672443 0 0 0 0 0 0
16650000000 0.20034828909707314 0.13449602980456402 0 0 0 0 0 0
16700000000 0.20975558314835119 0.12839188003661803 0 0 0 0 0 0
16750000000 0.21879613202758091 0.12168167603443625 0 0 0 0 0 0
16800000000 0.22743322230508997 0.11438801428574713 0 0 0 0 0 0
16850000000 0.23563147121149849 0.10653566303228321 0 0 0 0 0 0
16900000000 0.24335695087576623 0.098151492188179146 0 0 0 0 0 0
16950000000 0.25057730982008497 0.089264396572631327 0 0 0 0 0 0
17000000000 0.25726189139755062 0.07990521244707352 0 0 0 0 0 0
17050000000 0.26338184883967525 0.070106627356359974 0 0 0 0 0 0
17100000000 0.26891025656140044 0.059903083285492945 0 0 0 0 0 0
17150000000 0.27382221735165158 0.049330673158467314 0 0 0 0 0 0
17200000000 0.27809496505791514 0.038427030723960948 0 0 0 0 0 0
17250000000 0.28170796235423595 0.027231213893986441 0 0 0 0 0 0
17300000000 0.28464299316372255 0.015783581626303771 0 0 0 0 0 0
17350000000 0.28688424928955586 0.0041256644694642429 0 0 0 0 0 0
17400000000 0.28841841079301533 -0.0076999710792516191 0 0 0 0 0 0
17450000000 0.28923471964358677 -0.019649864217970908 0 0 0 0 0 0
17500000000 0.28932504615526078 -0.031679807263421032 0 0 0 0 0 0
17550000000 0.28868394771510486 -0.043744998589028139 0 0 0 0 0 0
17600000000 0.2873087193055649 -0.055800200769692068 0 0 0 0 0 0
17650000000 0.2851994353211717 -0.067799903578244169 0 0 0 0 0 0
17700000000 0.28235898218385758 -0.079698491429382401 0 0 0 0 0 0
17750000000 0.27879308126935098 -0.091450414815646419 0 0 0 0 0 0
17800000000 0.27451030167053597 -0.10301036522711109 0 0 0 0 0 0
17850000000 0.26952206234263021 -0.11433345299243691 0 0 0 0 0 0
17900000000 0.26384262319988555 -0.12537538742428986 0 0 0 0 0 0
17950000000 0.25748906476455335 -0.13609265859750452 0 0 0 0 0 0
18000000000 0.25048125600633769 -0.14644272003439762 0 0 0 0 0 0
18050000000 0.24284181005463551 -0.15638417151907094 0 0 0 0 0 0
18100000000 0.23459602751665862 -0.16587694121211069 0 0 0 0 0 0
18150000000 0.22577182719203778 -0.17488246618965192 0 0 0 0 0 0
18200000000 0.21639966403866234 -0.18336387048711561 0 0 0 0 0 0
18250000000 0.20651243431512392 -0.19128613968894162 0 0 0 0 0 0
18300000000 0.19614536790189538 -0.19861629107220508 0 0 0 0 0 0
18350000000 0.18533590788591803 -0.20532353828493993 0 0 0 0 0 0
18400000000 0.17412357758103858 -0.21137944952019738 0 0 0 0 0 0
18450000000 0.16254983524909183 -0.21675809813511063 0 0 0 0 0 0
18500000000 0.15065791688263175 -0.22143620466129094 0 0 0 0 0 0
18550000000 0.13849266750943992 -0.22539326915942909 0 0 0 0 0 0
18600000000 0.12610036158006838 -0.22861169288760153 0 0 0 0 0 0
18650000000 0.1135285131016624 -0.23107688828000139 0 0 0 0 0 0
18700000000 0.10082567628298725 -0.23277737627096326 0 0 0 0 0 0
18750000000 0.088041237555732427 -0.23370487004849344 0 0 0 0 0 0
18800000000 0.075225199934426099 -0.23385434438210223 0 0 0 0 0 0
18850000000 0.062427960770336959 -0.23322408974149833 0 0 0 0 0 0
18900000000 0.04970008404220122 -0.23181575050537759 0 0 0 0 0 0
18950000000 0.037092068407090277 -0.22963434665268662 0 0 0 0 0 0
19000000000 0.024654112306941242 -0.22668827843174066 0 0 0 0 0 0
19050000000 0.012435877488895769 -0.22298931361463592 0 0 0 0 0 0
19100000000 0.00048625234941190865 -0.21855255706451876 0 0 0 0 0 0
19150000000 -0.011146883447865644 -0.21339640247034422 0 0 0 0 0 0
19200000000 -0.022416891603373394 -0.20754246623643549 0 0 0 0 0 0
19250000000 -0.033278603571366271 -0.20101550365103277 0 0 0 0 0 0
19300000000 -0.043688543218164025 -0.19384330759753568 0 0 0 0 0 0
19350000000 -0.053605142274326813 -0.18605659021261406 0 0 0 0 0 0
19400000000 -0.062988947136422016 -0.17768884803512158 0 0 0 0 0 0
19450000000 -0.071802815619167598 -0.16877621132699816 0 0 0 0 0 0
19500000000 -0.08001210231852586 -0.15935727838033359 0 0 0 0 0 0
19550000000 -0.087584831320226431 -0.1494729357517916 0 0 0 0 0 0
19600000000 -0.094491855075655662 -0.13916616548490976 0 0 0 0 0 0
19650000000 -0.10070699836703167 -0.12848184049089029 0 0 0 0 0 0
19700000000 -0.10620718639524941 -0.11746650935786201 0 0 0 0 0 0
19750000000 -0.11097255614542195 -0.10616817194591169 0 0 0 0 0 0
19800000000 -0.11498655031546973 -0.094636047199358697 0 0 0 0 0 0
19850000000 -0.11823599323055231 -0.08292033466777167 0 0 0 0 0 0
19900000000 -0.1207111483089712 -0.07107197127242304 0 0 0 0 0 0
19950000000 -0.12240575679161932 -0.059142384884730198 0 0 0 0 0 0
20000000000 -0.12331705759526823 -0.047183246297450673 0 0 0 0 0 0
