! Synthetic calibration acquisition fixture: NOT a frequency-converting S2P model.
! RF=10..20 GHz; LO=5 GHz; IF=RF-LO. 201 points, 50 MHz step.
! Only S11 is meaningful. S21=S12=S22=0 are unused matched/isolated placeholders.
! Use ideal Open(+1), Short(-1), Load(0), zero offsets, Z0=50 ohm.
! Order: frequency_Hz S11_Re S11_Im S21_Re S21_Im S12_Re S12_Im S22_Re S22_Im
# Hz S RI R 50
10000000000 0.13816174430389788 0.052994369453019358 0 0 0 0 0 0
10050000000 0.13841960504920486 0.0524142302108873 0 0 0 0 0 0
10100000000 0.13867119090551622 0.051831540686352873 0 0 0 0 0 0
10150000000 0.13891648298334724 0.051246346811878542 0 0 0 0 0 0
10200000000 0.13915546277866905 0.050658694675275687 0 0 0 0 0 0
10250000000 0.1393881121741356 0.050068630516633704 0 0 0 0 0 0
10300000000 0.13961441344028533 0.049476200725239367 0 0 0 0 0 0
10350000000 0.13983434923671825 0.048881451836486504 0 0 0 0 0 0
10400000000 0.14004790261324773 0.048284430528776276 0 0 0 0 0 0
10450000000 0.14025505701102706 0.047685183620408148 0 0 0 0 0 0
10500000000 0.14045579626365085 0.04708375806646195 0 0 0 0 0 0
10550000000 0.14065010459823107 0.046480200955670958 0 0 0 0 0 0
10600000000 0.14083796663644776 0.045874559507286472 0 0 0 0 0 0
10650000000 0.14101936739557425 0.045266881067933959 0 0 0 0 0 0
10700000000 0.14119429228947666 0.04465721310846088 0 0 0 0 0 0
10750000000 0.14136272712958817 0.044045603220776622 0 0 0 0 0 0
10800000000 0.14152465812585757 0.043432099114684666 0 0 0 0 0 0
10850000000 0.14168007188767154 0.042816748614706933 0 0 0 0 0 0
10900000000 0.1418289554247521 0.042199599656901031 0 0 0 0 0 0
10950000000 0.14197129614802728 0.041580700285670083 0 0 0 0 0 0
11000000000 0.14210708187047666 0.040960098650565754 0 0 0 0 0 0
11050000000 0.14223630080795038 0.040337843003084392 0 0 0 0 0 0
11100000000 0.14235894157996265 0.03971398169345669 0 0 0 0 0 0
11150000000 0.14247499321045873 0.039088563167430999 0 0 0 0 0 0
11200000000 0.14258444512855617 0.038461635963050453 0 0 0 0 0 0
11250000000 0.14268728716925971 0.037833248707424161 0 0 0 0 0 0
11300000000 0.14278350957415004 0.037203450113492853 0 0 0 0 0 0
11350000000 0.14287310299204631 0.036572288976788776 0 0 0 0 0 0
11400000000 0.14295605847964252 0.035939814172190443 0 0 0 0 0 0
11450000000 0.14303236750211701 0.035306074650672328 0 0 0 0 0 0
11500000000 0.14310202193371643 0.034671119436049641 0 0 0 0 0 0
11550000000 0.14316501405831264 0.034034997621718299 0 0 0 0 0 0
11600000000 0.14322133656993341 0.033397758367390853 0 0 0 0 0 0
11650000000 0.14327098257326654 0.032759450895827692 0 0 0 0 0 0
11700000000 0.14331394558413785 0.032120124489564729 0 0 0 0 0 0
11750000000 0.14335021952996191 0.031479828487636745 0 0 0 0 0 0
11800000000 0.14337979875016699 0.03083861228229769 0 0 0 0 0 0
11850000000 0.1434026779965927 0.030196525315737181 0 0 0 0 0 0
11900000000 0.14341885243386182 0.029553617076794103 0 0 0 0 0 0
11950000000 0.14342831763972422 0.028909937097667072 0 0 0 0 0 0
12000000000 0.14343106960537583 0.028265534950622395 0 0 0 0 0 0
12050000000 0.14342710473574924 0.027620460244699274 0 0 0 0 0 0
12100000000 0.14341641984977854 0.026974762622412819 0 0 0 0 0 0
12150000000 0.14339901218063755 0.026328491756455085 0 0 0 0 0 0
12200000000 0.14337487937595031 0.025681697346393986 0 0 0 0 0 0
12250000000 0.14334401949797604 0.025034429115370724 0 0 0 0 0 0
12300000000 0.1433064310237665 0.02438673680679589 0 0 0 0 0 0
12350000000 0.14326211284529677 0.02373867018104393 0 0 0 0 0 0
12400000000 0.14321106426956942 0.023090279012147087 0 0 0 0 0 0
12450000000 0.14315328501869162 0.022441613084488252 0 0 0 0 0 0
12500000000 0.14308877522992575 0.021792722189493317 0 0 0 0 0 0
12550000000 0.14301753545571283 0.021143656122323131 0 0 0 0 0 0
12600000000 0.14293956666366944 0.020494464678565433 0 0 0 0 0 0
12650000000 0.14285487023655769 0.019845197650926669 0 0 0 0 0 0
12700000000 0.14276344797222842 0.019195904825924256 0 0 0 0 0 0
12750000000 0.14266530208353762 0.018546635980579214 0 0 0 0 0 0
12800000000 0.14256043519823602 0.017897440879109737 0 0 0 0 0 0
12850000000 0.14244885035883187 0.01724836926962528 0 0 0 0 0 0
12900000000 0.14233055102242692 0.016599470880822337 0 0 0 0 0 0
12950000000 0.14220554106052574 0.015950795418681142 0 0 0 0 0 0
13000000000 0.14207382475881813 0.015302392563164159 0 0 0 0 0 0
13050000000 0.14193540681693495 0.014654311964916291 0 0 0 0 0 0
13100000000 0.14179029234817703 0.014006603241967218 0 0 0 0 0 0
13150000000 0.14163848687921748 0.013359315976435752 0 0 0 0 0 0
13200000000 0.14147999634977731 0.012712499711236875 0 0 0 0 0 0
13250000000 0.14131482711227428 0.012066203946791185 0 0 0 0 0 0
13300000000 0.14114298593144525 0.011420478137737469 0 0 0 0 0 0
13350000000 0.14096447998394182 0.010775371689648164 0 0 0 0 0 0
13400000000 0.14077931685789932 0.010130933955748109 0 0 0 0 0 0
13450000000 0.1405875045524792 0.0094872142336371156 0 0 0 0 0 0
13500000000 0.14038905147738504 0.0088442617620158002 0 0 0 0 0 0
13550000000 0.14018396645235204 0.0082021257174156557 0 0 0 0 0 0
13600000000 0.13997225870660981 0.0075608552109332726 0 0 0 0 0 0
13650000000 0.13975393787831875 0.006920499284968934 0 0 0 0 0 0
13700000000 0.13952901401398041 0.0062811069099694937 0 0 0 0 0 0
13750000000 0.13929749756782092 0.0056427269811764914 0 0 0 0 0 0
13800000000 0.13905939940114853 0.0050054083153790244 0 0 0 0 0 0
13850000000 0.13881473078168455 0.0043691996476717156 0 0 0 0 0 0
13900000000 0.13856350338286824 0.0037341496282185735 0 0 0 0 0 0
13950000000 0.13830572928313548 0.0031003068190218232 0 0 0 0 0 0
14000000000 0.13804142096517116 0.0024677196906972565 0 0 0 0 0 0
14050000000 0.13777059131513558 0.0018364366192551336 0 0 0 0 0 0
14100000000 0.13749325362186465 0.0012065058828877179 0 0 0 0 0 0
14150000000 0.13720942157604449 0.00057797565876297266 0 0 0 0 0 0
14200000000 0.13691910926935938 -4.9105980174837804e-05 0 0 0 0 0 0
14250000000 0.13662233119361453 -0.00067469106839759818 0 0 0 0 0 0
14300000000 0.13631910223983251 -0.0012987317509789396 0 0 0 0 0 0
14350000000 0.1360094376973241 -0.0019211802867723157 0 0 0 0 0 0
14400000000 0.13569335325273352 -0.0025419890515815877 0 0 0 0 0 0
14450000000 0.1353708649890577 -0.0031611105413240533 0 0 0 0 0 0
14500000000 0.13504198938464024 -0.0037784973751851317 0 0 0 0 0 0
14550000000 0.13470674331213978 -0.0043941022987653566 0 0 0 0 0 0
14600000000 0.13436514403747257 -0.0050078781872189213 0 0 0 0 0 0
14650000000 0.13401720921873042 -0.0056197780483834454 0 0 0 0 0 0
14700000000 0.13366295690507229 -0.0062297550259010313 0 0 0 0 0 0
14750000000 0.13330240553559167 -0.006837762402330784 0 0 0 0 0 0
14800000000 0.13293557393815778 -0.0074437536022515342 0 0 0 0 0 0
14850000000 0.13256248132823253 -0.0080476821953556973 0 0 0 0 0 0
14900000000 0.13218314730766209 -0.0086495018995333614 0 0 0 0 0 0
14950000000 0.13179759186344314 -0.0092491665839464082 0 0 0 0 0 0
15000000000 0.13140583536646508 -0.0098466302720932632 0 0 0 0 0 0
15050000000 0.13100789857022654 -0.010441847144862831 0 0 0 0 0 0
15100000000 0.13060380260952792 -0.011034771543578299 0 0 0 0 0 0
15150000000 0.13019356899913898 -0.011625357973030593 0 0 0 0 0 0
15200000000 0.12977721963244174 -0.012213561104500722 0 0 0 0 0 0
15250000000 0.12935477678004931 -0.012799335778771487 0 0 0 0 0 0
15300000000 0.12892626308840013 -0.013382637009127597 0 0 0 0 0 0
15350000000 0.12849170157832804 -0.013963419984345016 0 0 0 0 0 0
15400000000 0.1280511156436078 -0.014541640071668201 0 0 0 0 0 0
15450000000 0.12760452904947728 -0.015117252819776019 0 0 0 0 0 0
15500000000 0.12715196593113498 -0.015690213961735325 0 0 0 0 0 0
15550000000 0.12669345079221406 -0.016260479417942959 0 0 0 0 0 0
15600000000 0.12622900850323221 -0.016828005299054743 0 0 0 0 0 0
15650000000 0.12575866430001831 -0.017392747908902627 0 0 0 0 0 0
15700000000 0.12528244378211523 -0.017954663747398635 0 0 0 0 0 0
15750000000 0.12480037291115906 -0.018513709513426079 0 0 0 0 0 0
15800000000 0.12431247800923503 -0.019069842107718029 0 0 0 0 0 0
15850000000 0.12381878575721036 -0.019623018635721846 0 0 0 0 0 0
15900000000 0.12331932319304389 -0.020173196410450782 0 0 0 0 0 0
15950000000 0.1228141177100722 -0.020720332955321767 0 0 0 0 0 0
16000000000 0.12230319705527351 -0.021264386006979379 0 0 0 0 0 0
16050000000 0.12178658932750812 -0.021805313518105853 0 0 0 0 0 0
16100000000 0.12126432297573668 -0.022343073660216786 0 0 0 0 0 0
16150000000 0.12073642679721541 -0.022877624826442389 0 0 0 0 0 0
16200000000 0.12020292993566896 -0.023408925634294711 0 0 0 0 0 0
16250000000 0.11966386187944111 -0.023936934928419262 0 0 0 0 0 0
16300000000 0.11911925245962314 -0.024461611783332525 0 0 0 0 0 0
16350000000 0.11856913184815966 -0.024982915506143913 0 0 0 0 0 0
16400000000 0.11801353055593328 -0.025500805639262457 0 0 0 0 0 0
16450000000 0.11745247943082648 -0.026015241963088381 0 0 0 0 0 0
16500000000 0.11688600965576247 -0.02652618449868864 0 0 0 0 0 0
16550000000 0.11631415274672406 -0.02703359351045681 0 0 0 0 0 0
16600000000 0.11573694055075093 -0.027537429508757288 0 0 0 0 0 0
16650000000 0.11515440524391596 -0.028037653252552863 0 0 0 0 0 0
16700000000 0.11456657932927991 -0.028534225752016106 0 0 0 0 0 0
16750000000 0.11397349563482526 -0.029027108271124584 0 0 0 0 0 0
16800000000 0.11337518731136884 -0.029516262330239136 0 0 0 0 0 0
16850000000 0.11277168783045406 -0.030001649708665229 0 0 0 0 0 0
16900000000 0.11216303098222181 -0.030483232447197549 0 0 0 0 0 0
16950000000 0.11154925087326145 -0.030960972850647334 0 0 0 0 0 0
17000000000 0.11093038192444082 -0.031434833490352442 0 0 0 0 0 0
17050000000 0.11030645886871665 -0.031904777206669822 0 0 0 0 0 0
17100000000 0.10967751674892393 -0.032370767111450198 0 0 0 0 0 0
17150000000 0.10904359091554613 -0.032832766590495603 0 0 0 0 0 0
17200000000 0.10840471702446511 -0.033290739305997907 0 0 0 0 0 0
17250000000 0.10776093103469159 -0.033744649198960107 0 0 0 0 0 0
17300000000 0.10711226920607564 -0.034194460491598959 0 0 0 0 0 0
17350000000 0.10645876809699834 -0.034640137689728963 0 0 0 0 0 0
17400000000 0.10580046456204378 -0.035081645585128246 0 0 0 0 0 0
17450000000 0.10513739574965197 -0.035518949257885249 0 0 0 0 0 0
17500000000 0.10446959909975323 -0.035952014078726578 0 0 0 0 0 0
17550000000 0.10379711234138306 -0.036380805711326125 0 0 0 0 0 0
17600000000 0.1031199734902791 -0.036805290114594436 0 0 0 0 0 0
17650000000 0.10243822084645904 -0.037225433544949178 0 0 0 0 0 0
17700000000 0.10175189299178039 -0.037641202558565928 0 0 0 0 0 0
17750000000 0.10106102878748253 -0.038052564013608993 0 0 0 0 0 0
17800000000 0.10036566737170968 -0.038459485072443192 0 0 0 0 0 0
17850000000 0.099665848157017262 -0.038861933203824868 0 0 0 0 0 0
17900000000 0.098961610827859675 -0.039259876185073192 0 0 0 0 0 0
17950000000 0.098252995338060839 -0.03965328210422131 0 0 0 0 0 0
18000000000 0.097540041908267594 -0.040042119362146911 0 0 0 0 0 0
18050000000 0.096822791023385396 -0.040426356674682438 0 0 0 0 0 0
18100000000 0.096101283429997506 -0.040805963074704514 0 0 0 0 0 0
18150000000 0.095375560133767107 -0.041180907914202536 0 0 0 0 0 0
18200000000 0.094645662396822511 -0.041551160866326813 0 0 0 0 0 0
18250000000 0.093911631735126094 -0.041916691927414852 0 0 0 0 0 0
18300000000 0.093173509915827013 -0.042277471418997251 0 0 0 0 0 0
18350000000 0.092431338954597292 -0.042633469989781597 0 0 0 0 0 0
18400000000 0.091685161112952329 -0.042984658617615433 0 0 0 0 0 0
18450000000 0.090935018895555178 -0.043331008611427434 0 0 0 0 0 0
18500000000 0.090180955047505729 -0.043672491613146763 0 0 0 0 0 0
18550000000 0.089423012551613681 -0.044009079599600757 0 0 0 0 0 0
18600000000 0.088661234625656699 -0.044340744884390694 0 0 0 0 0 0
18650000000 0.087895664719623484 -0.044667460119745324 0 0 0 0 0 0
18700000000 0.087126346512941572 -0.044989198298352358 0 0 0 0 0 0
18750000000 0.086353323911690469 -0.045305932755167456 0 0 0 0 0 0
18800000000 0.085576641045800428 -0.045617637169200989 0 0 0 0 0 0
18850000000 0.084796342266236308 -0.045924285565282122 0 0 0 0 0 0
18900000000 0.084012472142167977 -0.046225852315800169 0 0 0 0 0 0
18950000000 0.08322507545812588 -0.046522312142423326 0 0 0 0 0 0
19000000000 0.082434197211143034 -0.046813640117794555 0 0 0 0 0 0
19050000000 0.081639882607883962 -0.047099811667204082 0 0 0 0 0 0
19100000000 0.080842177061758683 -0.047380802570239224 0 0 0 0 0 0
19150000000 0.080041126190025194 -0.047656588962410831 0 0 0 0 0 0
19200000000 0.079236775810877458 -0.047927147336756126 0 0 0 0 0 0
19250000000 0.078429171940520931 -0.048192454545418838 0 0 0 0 0 0
19300000000 0.077618360790235735 -0.048452487801204758 0 0 0 0 0 0
19350000000 0.076804388763426629 -0.048707224679114682 0 0 0 0 0 0
19400000000 0.075987302452660943 -0.048956643117852923 0 0 0 0 0 0
19450000000 0.075167148636694742 -0.049200721421312266 0 0 0 0 0 0
19500000000 0.074343974277486014 -0.049439438260035017 0 0 0 0 0 0
19550000000 0.073517826517197293 -0.049672772672649843 0 0 0 0 0 0
19600000000 0.072688752675185778 -0.049900704067284689 0 0 0 0 0 0
19650000000 0.071856800244982422 -0.050123212222955363 0 0 0 0 0 0
19700000000 0.071022016891260031 -0.050340277290929762 0 0 0 0 0 0
19750000000 0.07018445044678992 -0.050551879796067865 0 0 0 0 0 0
19800000000 0.069344148909388253 -0.050758000638137069 0 0 0 0 0 0
19850000000 0.06850116043885135 -0.050958621093103187 0 0 0 0 0 0
19900000000 0.067655533353880942 -0.051153722814396542 0 0 0 0 0 0
19950000000 0.066807316128999095 -0.051343287834153428 0 0 0 0 0 0
20000000000 0.065956557391453036 -0.051527298564432666 0 0 0 0 0 0
