! VMC calibration mixer + filter characterization
! Stimulus=RF; IF=RF-LO; non-inverting; reciprocal S21=S12
! LO_Hz=5000000000
! SecondRound=raw; StandardSampling=cubic_ri
! SharedKit=shared_open_short_load; CubicBoundary=not-a-knot; Extrapolation=False
! GlobalRootSign=1; absolute sign not identified by SOL reflection
# Hz S RI R 50
10000000000 0.11052731928034625 0.046730201077038083 0.50118723362727224 1.081633868283858e-17 0.50118723362727224 1.081633868283858e-17 0.076484218728449113 -0.064421768723769091
10050000000 0.11031591499799448 0.047227099192680172 0.50102895332781949 -0.012594883016035631 0.50102895332781949 -0.012594883016035631 0.076837379849177961 -0.064000133264807385
10100000000 0.11010227682213392 0.047723040961177514 0.50055421240269105 -0.025181810834007164 0.50055421240269105 -0.025181810834007164 0.077188216645026314 -0.06357656180669484
10150000000 0.10988640907892985 0.048218016339726125 0.49976331070843016 -0.03775283328052411 0.49976331070843016 -0.03775283328052411 0.077536718503206842 -0.063151067162435515
10200000000 0.10966831613969701 0.048712015305091554 0.4986567477954989 -0.050300010228369531 0.4986567477954989 -0.050300010228369531 0.077882874881565631 -0.062723662203210073
10250000000 0.10944800242080988 0.049205027853811666 0.49723522259275066 -0.062815416611654393 0.49723522259275066 -0.062815416611654393 0.078226675308897806 -0.062294359857986127
10300000000 0.10922547238361405 0.049697044002399153 0.49549963296597127 -0.075291147431459468 0.49549963296597127 -0.075291147431459468 0.078568109385267149 -0.061863173113126745
10350000000 0.10900073053433457 0.050188053787543846 0.49345107515076891 -0.087719322748801537 0.49345107515076891 -0.087719322748801537 0.078907166782318933 -0.061430115011998042
10400000000 0.10877378142398661 0.050678047266314301 0.49109084306016659 -0.10009209266177209 0.49109084306016659 -0.10009209266177209 0.07924383724359263 -0.06099519865457461
10450000000 0.10854462964828183 0.051167014516359417 0.48842042746734127 -0.11240164226370358 0.48842042746734127 -0.11240164226370358 0.079578110584832273 -0.060558437197043104
10500000000 0.10831327984753587 0.051654945636109048 0.48544151506401706 -0.12464019657923198 0.48544151506401706 -0.12464019657923198 0.079909976694295032 -0.060119843851404182
10550000000 0.10807973670657416 0.052141830744974665 0.48215598739511639 -0.13680002547513778 0.48215598739511639 -0.13680002547513778 0.080239425533056283 -0.059679431885073124
10600000000 0.1078440049546376 0.052627659983549568 0.47856591967033479 -0.14887344854286386 0.47856591967033479 -0.14887344854286386 0.08056644713531412 -0.059237214620478588
10650000000 0.10760608936528575 0.053112423513808085 0.47467357945339445 -0.16085283994962604 0.47467357945339445 -0.16085283994962604 0.080891031608689545 -0.058793205434659011
10700000000 0.10736599475630161 0.053596111519305524 0.47048142522980269 -0.17273063325505272 0.47048142522980269 -0.17273063325505272 0.081213169134527058 -0.058347417758858072
10750000000 0.10712372598959233 0.054078714205376029 0.46599210485401915 -0.18449932619031065 0.46599210485401915 -0.18449932619031065 0.081532849968191504 -0.057899865078119124
10800000000 0.10687928797109245 0.05456022179933194 0.46120845387701481 -0.19615148539669916 0.46120845387701481 -0.19615148539669916 0.081850064439361062 -0.05745056093087697
10850000000 0.1066326856506634 0.055040624550660826 0.45613349375527629 -0.20767975112071779 0.45613349375527629 -0.20767975112071779 0.082164802952323507 -0.056999518908547556
10900000000 0.10638392402199368 0.055519912731223302 0.4507704299423903 -0.21907684186264526 0.4507704299423903 -0.21907684186264526 0.082477055986261719 -0.056546752655117521
10950000000 0.10613300812249803 0.05599807663545029 0.44512264986440991 -0.2303355589756908 0.44512264986440991 -0.2303355589756908 0.08278681409554578 -0.056092275866731801
11000000000 0.10587994303321459 0.05647510658053892 0.43919372078028318 -0.24144879121281312 0.43919372078028318 -0.24144879121281312 0.08309406791001632 -0.055636102291278522
11050000000 0.10562473387870286 0.056950992906649248 0.43298738752869698 -0.25240951921833688 0.43298738752869698 -0.25240951921833688 0.083398808135269231 -0.055178245727973189
11100000000 0.10536738582693925 0.057425725977099183 0.42650757016275576 -0.26321081996152812 0.42650757016275576 -0.26321081996152812 0.083701025552935071 -0.054718720026942398
11150000000 0.10510790408921362 0.057899296178560586 0.41975836147399243 -0.27384587110932901 0.41975836147399243 -0.27384587110932901 0.084000711020960975 -0.05425753908880316
11200000000 0.10484629392002162 0.058371693921252819 0.41274402440727304 -0.28430795533548886 0.41274402440727304 -0.28430795533548886 0.084297855473883937 -0.053794716864244051
11250000000 0.10458256061696072 0.058842909639137783 0.40546898936823028 -0.29459046456337279 0.40546898936823028 -0.29459046456337279 0.084592449923107105 -0.053330267353602183
11300000000 0.10431670952062097 0.059312933790113397 0.39793785142492372 -0.30468690413976329 0.39793785142492372 -0.30468690413976329 0.084884485457170408 -0.052864204606439071
11350000000 0.10404874601447821 0.059781756856206535 0.39015536740549589 -0.3145908969370228 0.39015536740549589 -0.3145908969370228 0.085173953242021372 -0.052396542721117899
11400000000 0.10377867552478419 0.060249369343766214 0.3821264528936586 -0.32429618738102434 0.3821264528936586 -0.32429618738102434 0.085460844521282261 -0.051927295844375256
11450000000 0.10350650352045698 0.060715761783655488 0.37385617912390456 -0.33379664540230602 0.37385617912390456 -0.33379664540230602 0.085745150616512403 -0.051456478170892724
11500000000 0.10323223551297063 0.061180924731443459 0.36534976977840711 -0.34308627030795474 0.36534976977840711 -0.34308627030795474 0.086026862927475634 -0.050984103942869473
11550000000 0.10295587705624268 0.061644848767596266 0.3566125976876296 -0.35215919457177169 0.3566125976876296 -0.35215919457177169 0.086305972932394934 -0.05051018744958978
11600000000 0.10267743374652277 0.062107524497668147 0.34765018143673199 -0.36100968754032808 0.34765018143673199 -0.36100968754032808 0.086582472188214521 -0.050034743026991395
11650000000 0.10239691122227801 0.062568942552491125 0.33846818187991373 -0.36963215905256891 0.33846818187991373 -0.36963215905256891 0.086856352330852551 -0.049557785057231948
11700000000 0.10211431516408001 0.063029093588365573 0.32907239856489601 -0.37802116297067823 0.32907239856489601 -0.37802116297067823 0.087127605075456013 -0.049079327968253254
11750000000 0.10182965129448941 0.063487968287248647 0.31946876606980462 -0.38617140061997651 0.31946876606980462 -0.38617140061997651 0.087396222216649777 -0.048599386233346191
11800000000 0.10154292537793977 0.063945557356943433 0.30966335025476144 -0.39407772413567721 0.30966335025476144 -0.39407772413567721 0.087662195628786022 -0.048117974370711601
11850000000 0.10125414322062119 0.064401851531286788 0.29966234443055906 -0.40173513971438818 0.29966234443055906 -0.40173513971438818 0.087925517266188968 -0.047635106943021484
11900000000 0.10096331067036252 0.064856841570337567 0.28947206544683135 -0.40913881076830572 0.28947206544683135 -0.40913881076830572 0.088186179163399769 -0.047150798556978797
11950000000 0.10067043361651273 0.065310518260562667 0.27909894970219673 -0.4162840609801059 0.27909894970219673 -0.4162840609801059 0.088444173435415024 -0.046665063862875146
12000000000 0.10037551798982246 0.065762872415024834 0.26854954907889078 -0.42316637725660844 0.26854954907889078 -0.42316637725660844 0.088699492277928449 -0.046177917554148316
12050000000 0.10007856976232285 0.066213894873567825 0.25783052680445701 -0.42978141257934155 0.25783052680445701 -0.42978141257934155 0.088952127967564146 -0.045689374366936562
12100000000 0.099779594947205355 0.066663576503002253 0.24694865324310841 -0.43612498875021261 0.24694865324310841 -0.43612498875021261 0.089202072862111806 -0.045199449079634267
12150000000 0.099478599598699868 0.067111908197290598 0.23591080161942227 -0.44219309903054732 0.23591080161942227 -0.44219309903054732 0.089449319400758148 -0.044708156512444301
12200000000 0.099175589811951861 0.067558880877731112 0.2247239436770628 -0.44798191067183313 0.2247239436770628 -0.44798191067183313 0.089693860104312434 -0.044215511526928798
12250000000 0.098870571722899162 0.0680044854931426 0.21339514527527853 -0.4534877673365631 0.21339514527527853 -0.4534877673365631 0.089935687575439058 -0.043721529025561222
12300000000 0.098563551508147773 0.068448713020046723 0.20193156192595524 -0.45870719140765842 0.20193156192595524 -0.45870719140765842 0.090174794498874639 -0.043226223951274664
12350000000 0.098254535384846381 0.06889155446285114 0.19034043427403916 -0.46363688618500581 0.19034043427403916 -0.46363688618500581 0.090411173641652687 -0.04272961128700993
12400000000 0.097943529610560923 0.069333000854031768 0.1786290835241931 -0.46827373796772415 0.1786290835241931 -0.46827373796772415 0.090644817853322041 -0.042231706055261872
12450000000 0.097630540483147829 0.06977304325431441 0.16680490681656443 -0.4726148180208436 0.16680490681656443 -0.4726148180208436 0.090875720066163873 -0.041732523317626211
12500000000 0.097315574340626113 0.070211672752855434 0.15487537255459438 -0.47665738442515876 0.15487537255459438 -0.47665738442515876 0.091103873295403204 -0.0412320781743424
12550000000 0.096998637561049567 0.070648880467422528 0.14284801568781275 -0.48039888380908241 0.14284801568781275 -0.48039888380908241 0.09132927063942281 -0.040730385763838084
12600000000 0.096679736562376953 0.071084657544574298 0.13073043295260434 -0.48383695296141105 0.13073043295260434 -0.48383695296141105 0.091551905279969717 -0.040227461262270336
12650000000 0.096358877802342591 0.071518995159839852 0.1185302780739451 -0.48696942032397805 0.1185302780739451 -0.48696942032397805 0.091771770482363152 -0.039723319883066946
12700000000 0.09603606777832574 0.071951884517897455 0.10625525693114773 -0.48979430736325807 0.10625525693114773 -0.48979430736325807 0.091988859595697706 -0.039217976876466061
12750000000 0.09571131302721779 0.072383316852752178 0.093913122690661016 -0.49230982982005023 0.093913122690661016 -0.49230982982005023 0.092203166053043725 -0.038711447529055198
12800000000 0.095384620125291877 0.072813283427914224 0.081511670909005574 -0.49451439883645459 0.081511670909005574 -0.49451439883645459 0.092414683371648279 -0.038203747163308696
12850000000 0.095055995688067871 0.073241775536574988 0.069058734608931402 -0.49640662195942864 0.069058734608931402 -0.49640662195942864 0.092623405153127308 -0.037694891137123661
12900000000 0.09472544637017935 0.073668784501783768 0.056562179331915083 -0.49798530402029162 0.056562179331915083 -0.49798530402029162 0.092829325083663775 -0.03718489484335627
12950000000 0.094392978865238814 0.074094301676624022 0.044029898170112818 -0.49924944788961723 0.044029898170112818 -0.49924944788961723 0.09303243693419512 -0.03667377370935531
13000000000 0.094058599905701923 0.074518318444387166 0.031469806780916085 -0.5001982551070423 0.031469806780916085 -0.5001982551070423 0.093232734560603353 -0.036161543196496206
13050000000 0.093722316262730906 0.074940826218748188 0.018889838387251012 -0.50083112638559257 0.018889838387251012 -0.50083112638559257 0.093430211903900676 -0.035648218799712771
13100000000 0.093384134746058445 0.075361816443939203 0.0062979387667875487 -0.501147661990204 0.0062979387667875487 -0.501147661990204 0.09362486299041238 -0.035133816047029351
13150000000 0.093044062203848435 0.075781280594922631 -0.0062979387667873752 -0.501147661990204 -0.0062979387667873752 -0.501147661990204 0.093816681931958273 -0.034618350499089345
13200000000 0.092702105522558337 0.07619921017756337 -0.018889838387250849 -0.5008311263855928 -0.018889838387250849 -0.5008311263855928 0.094005662926029174 -0.034101837748686865
13250000000 0.092358271626798924 0.076615596728802027 -0.031469806780915793 -0.5001982551070423 -0.031469806780915793 -0.5001982551070423 0.094191800255965311 -0.033584293420292614
13300000000 0.092012567479195423 0.077030431816824882 -0.044029898170112519 -0.49924944788961712 -0.044029898170112519 -0.49924944788961712 0.094375088291126674 -0.033065733169583403
13350000000 0.091665000080244613 0.077443707041235724 -0.056562179331914798 -0.49798530402029167 -0.056562179331914798 -0.49798530402029167 0.094555521487063171 -0.0325461726829675
13400000000 0.091315576468174481 0.077855414033225545 -0.069058734608931444 -0.49640662195942864 -0.069058734608931444 -0.49640662195942864 0.094733094385685085 -0.032025627677109536
13450000000 0.090964303718801445 0.078265544455741659 -0.081511670909005393 -0.49451439883645448 -0.081511670909005393 -0.49451439883645448 0.094907801615426252 -0.031504113898456192
13500000000 0.09061118894538632 0.078674090003656966 -0.093913122690660725 -0.49230982982005028 -0.093913122690660725 -0.49230982982005028 0.095079637891405555 -0.030981647122760175
13550000000 0.090256239298491497 0.079081042403937929 -0.10625525693114736 -0.48979430736325819 -0.10625525693114736 -0.48979430736325819 0.095248598015588604 -0.030458243154601185
13600000000 0.089899461965835065 0.079486393415812817 -0.11853027807394505 -0.48696942032397811 -0.11853027807394505 -0.48696942032397811 0.095414676876945062 -0.029933917826909174
13650000000 0.08954086417214599 0.079890134830937085 -0.13073043295260414 -0.48383695296141099 -0.13073043295260414 -0.48383695296141099 0.09557786945160178 -0.029408687000485607
13700000000 0.089180453179017238 0.080292258473561084 -0.14284801568781255 -0.48039888380908269 -0.14284801568781255 -0.48039888380908269 0.095738170802996084 -0.028882566563522904
13750000000 0.088818236284758795 0.080692756200694785 -0.15487537255459402 -0.47665738442515887 -0.15487537255459402 -0.47665738442515887 0.09589557608202412 -0.028355572431124198
13800000000 0.088454220824250834 0.081091619902272719 -0.16680490681656429 -0.47261481802084376 -0.16680490681656429 -0.47261481802084376 0.096050080527188136 -0.027827720544821608
13850000000 0.088088414168793816 0.081488841501318798 -0.17862908352419285 -0.46827373796772426 -0.17862908352419285 -0.46827373796772426 0.096201679464740522 -0.027299026872094633
13900000000 0.087720823725959865 0.08188441295410899 -0.19034043427403888 -0.46363688618500593 -0.19034043427403888 -0.46363688618500593 0.096350368308825041 -0.026769507405886139
13950000000 0.087351456939443281 0.082278326250335085 -0.20193156192595496 -0.45870719140765848 -0.20193156192595496 -0.45870719140765848 0.096496142561615039 -0.026239178164120178
14000000000 0.086980321288908619 0.082670573413266168 -0.21339514527527817 -0.45348776733656326 -0.21339514527527817 -0.45348776733656326 0.096638997813451477 -0.025708055189215501
14050000000 0.086607424289840154 0.083061146499910685 -0.22472394367706264 -0.44798191067183324 -0.22472394367706264 -0.44798191067183324 0.096778929742972863 -0.025176154547601696
14100000000 0.086232773493389175 0.083450037601176849 -0.23591080161942213 -0.44219309903054771 -0.23591080161942213 -0.44219309903054771 0.0969159341172494 -0.024643492329232776
14150000000 0.085856376486221797 0.083837238842033326 -0.24694865324310825 -0.43612498875021244 -0.24694865324310825 -0.43612498875021244 0.097050006791909574 -0.024110084647100013
14200000000 0.08547824089036446 0.084222742381668075 -0.25783052680445651 -0.42978141257934166 -0.25783052680445651 -0.42978141257934166 0.09718114371126467 -0.023575947636745313
14250000000 0.085098374363050025 0.084606540413647638 -0.26854954907889061 -0.42316637725660872 -0.26854954907889061 -0.42316637725660872 0.097309340908432865 -0.023041097455772291
14300000000 0.08471678459656265 0.084988625166074971 -0.27909894970219651 -0.41628406098010606 -0.27909894970219651 -0.41628406098010606 0.097434594505459118 -0.022505550283358142
14350000000 0.084333479318082091 0.085368988901746976 -0.28947206544683118 -0.40913881076830572 -0.28947206544683118 -0.40913881076830572 0.097556900713431344 -0.021969322319764246
14400000000 0.08394846628952736 0.085747623918310922 -0.29966234443055878 -0.40173513971438835 -0.29966234443055878 -0.40173513971438835 0.097676255832596176 -0.02143242978584543
14450000000 0.083561753307398887 0.086124522548420665 -0.30966335025476138 -0.39407772413567727 -0.30966335025476138 -0.39407772413567727 0.097792656252470481 -0.020894888922559793
14500000000 0.083173348202621317 0.086499677159891847 -0.31946876606980462 -0.38617140061997673 -0.31946876606980462 -0.38617140061997673 0.097906098451950224 -0.020356715990477725
14550000000 0.082783258840384899 0.086873080155856416 -0.32907239856489595 -0.37802116297067834 -0.32907239856489595 -0.37802116297067834 0.098016578999417944 -0.019817927269289156
14600000000 0.082391493119985684 0.087244723974916297 -0.33846818187991345 -0.36963215905256935 -0.33846818187991345 -0.36963215905256935 0.098124094552845098 -0.019278539057312079
14650000000 0.081998058974666443 0.087614601091297206 -0.34765018143673188 -0.36100968754032803 -0.34765018143673188 -0.36100968754032803 0.098228641859894369 -0.018738567670998438
14700000000 0.081602964371454881 0.08798270401499983 -0.35661259768762954 -0.35215919457177169 -0.35661259768762954 -0.35215919457177169 0.098330217758017743 -0.018198029444441727
14750000000 0.08120621731100347 0.088349025291952682 -0.36534976977840677 -0.3430862703079548 -0.36534976977840677 -0.3430862703079548 0.098428819174552262 -0.017656940728882096
14800000000 0.080807825827426127 0.088713557504162516 -0.37385617912390434 -0.33379664540230625 -0.37385617912390434 -0.33379664540230625 0.098524443126812772 -0.017115317892211705
14850000000 0.080407797988137408 0.089076293269864396 -0.38212645289365843 -0.32429618738102445 -0.38212645289365843 -0.32429618738102445 0.098617086722181307 -0.016573177318480237
14900000000 0.080006141893687113 0.089437225243671273 -0.39015536740549561 -0.31459089693702302 -0.39015536740549561 -0.31459089693702302 0.098706747158196356 -0.016030535407398763
14950000000 0.079602865677597334 0.089796346116723352 -0.39793785142492361 -0.30468690413976346 -0.39793785142492361 -0.30468690413976346 0.098793421722637262 -0.015487408573843509
15000000000 0.079197977506197906 0.090153648616835169 -0.40546898936823028 -0.29459046456337318 -0.40546898936823028 -0.29459046456337318 0.09887710779360441 -0.014943813247359971
15050000000 0.078791485578460149 0.090509125508643096 -0.41274402440727287 -0.28430795533548897 -0.41274402440727287 -0.28430795533548897 0.098957802839600373 -0.014399765871665145
15100000000 0.078383398125831963 0.090862769593752293 -0.41975836147399226 -0.27384587110932923 -0.41975836147399226 -0.27384587110932923 0.099035504419607026 -0.01385528290415085
15150000000 0.077973723412070178 0.091214573710882207 -0.42650757016275564 -0.26321081996152834 -0.42650757016275564 -0.26321081996152834 0.099110210183156411 -0.013310380815385187
15200000000 0.077562469733073916 0.091564530736011451 -0.43298738752869681 -0.25240951921833715 -0.43298738752869681 -0.25240951921833715 0.099181917870405395 -0.01276507608861498
15250000000 0.07714964541671597 0.091912633582522288 -0.43919372078028301 -0.24144879121281351 -0.43919372078028301 -0.24144879121281351 0.099250625312202329 -0.012219385219266249
15300000000 0.07673525882267461 0.092258875201343821 -0.44512264986440986 -0.23033555897569091 -0.44512264986440986 -0.23033555897569091 0.099316330430151825 -0.011673324714446617
15350000000 0.076319318342264339 0.092603248581095227 -0.45077042994239025 -0.2190768418626455 -0.45077042994239025 -0.2190768418626455 0.09937903123667903 -0.01112691109244443
15400000000 0.075901832398265673 0.092945746748227226 -0.45613349375527601 -0.20767975112071796 -0.45613349375527601 -0.20767975112071796 0.099438725835089406 -0.010580160882230186
15450000000 0.07548280944475444 0.093286362767163789 -0.4612084538770147 -0.19615148539669938 -0.4612084538770147 -0.19615148539669938 0.09949541241962645 -0.010033090622956065
15500000000 0.075062257966931556 0.09362508974044198 -0.4659921048540191 -0.18449932619031084 -0.4659921048540191 -0.18449932619031084 0.099549089275524319 -0.0094857168634558155
15550000000 0.07464018648094968 0.093961920808852406 -0.47048142522980263 -0.17273063325505292 -0.47048142522980263 -0.17273063325505292 0.099599754779063285 -0.0089380561617435125
15600000000 0.07421660353374232 0.094296849151577281 -0.47467357945339445 -0.16085283994962635 -0.47467357945339445 -0.16085283994962635 0.099647407397614657 -0.0083901250845140347
15650000000 0.073791517702849446 0.094629867986329011 -0.47856591967033452 -0.14887344854286402 -0.47856591967033452 -0.14887344854286402 0.099692045689690936 -0.0078419402066405922
15700000000 0.073364937596244545 0.09496097056948781 -0.4821559873951165 -0.13680002547513778 -0.4821559873951165 -0.13680002547513778 0.099733668304987463 -0.0072935181106737364
15750000000 0.072936871852160579 0.095290150196237489 -0.48544151506401712 -0.12464019657923207 -0.48544151506401712 -0.12464019657923207 0.099772273984422954 -0.0067448753863404128
15800000000 0.072507329138913876 0.095617400200702016 -0.48842042746734127 -0.11240164226370376 -0.48842042746734127 -0.11240164226370376 0.099807861560178304 -0.0061960286300408486
15850000000 0.072076318154729799 0.095942713956079839 -0.49109084306016659 -0.10009209266177212 -0.49109084306016659 -0.10009209266177212 0.099840429955732474 -0.0056469944443477832
15900000000 0.071643847627566246 0.096266084874778612 -0.49345107515076864 -0.087719322748801662 -0.49345107515076864 -0.087719322748801662 0.099869978185893382 -0.0050977894375032595
15950000000 0.071209926314936264 0.096587506408548282 -0.49549963296597133 -0.075291147431459746 -0.49549963296597133 -0.075291147431459746 0.099896505356830478 -0.0045484302229170685
16000000000 0.070774563003731791 0.096906972048613704 -0.49723522259275049 -0.062815416611654781 -0.49723522259275049 -0.062815416611654781 0.099920010666097403 -0.0039989334186634699
16050000000 0.07033776651004503 0.09722447532580665 -0.49865674779549896 -0.050300010228369774 -0.49865674779549896 -0.050300010228369774 0.099940493402662006 -0.0034493156469786227
16100000000 0.069899545678989913 0.097540009810696673 -0.49976331070843005 -0.037752833280524048 -0.49976331070843005 -0.037752833280524048 0.099957952946921433 -0.0028995935337589604
16150000000 0.069459909384523594 0.097853569113721034 -0.50055421240269071 -0.025181810834007209 -0.50055421240269071 -0.025181810834007209 0.099972388770727033 -0.0023497837080558889
16200000000 0.069018866529265699 0.098165146885314691 -0.50102895332781938 -0.012594883016035795 -0.50102895332781938 -0.012594883016035795 0.099983800437395312 -0.0017999028015746813
16250000000 0.068576426044319017 0.098474736816038466 -0.50118723362727213 -6.1377734143515546e-17 -0.50118723362727213 -6.1377734143515546e-17 0.099992187601724708 -0.0012499674481709995
16300000000 0.06813259688908839 0.098782332636706743 -0.50102895332781938 0.01259488301603545 -0.50102895332781938 0.01259488301603545 0.099997550010004016 -0.00069999428334730288
16350000000 0.06768738805109896 0.099087928118514745 -0.50055421240269105 0.025181810834006876 -0.50055421240269105 0.025181810834006876 0.099999887500021187 -0.00014999994375009199
16400000000 0.067240808545814601 0.099391517073164348 -0.49976331070843016 0.03775283328052393 -0.49976331070843016 0.03775283328052393 0.099999200001066532 0.00039999893333426034
16450000000 0.066792867416454779 0.099693093352989606 -0.49865674779549912 0.050300010228369448 -0.49865674779549912 0.050300010228369448 0.099995487533937708 0.00094998571048108909
16500000000 0.066343573733812278 0.099992650851081111 -0.49723522259275077 0.062815416611654462 -0.49723522259275077 0.062815416611654462 0.099988750210935867 0.001499943750632917
16550000000 0.065892936596068749 0.10029018350140988 -0.49549963296597127 0.075291147431459385 -0.49549963296597127 0.075291147431459385 0.09997898823586493 0.0020498564176003363
16600000000 0.065440965128610765 0.10058568527894982 -0.49345107515076869 0.087719322748801329 -0.49345107515076869 0.087719322748801329 0.099966201904023583 0.0025997070765676629
16650000000 0.064987668483845282 0.10087915019980012 -0.49109084306016659 0.10009209266177201 -0.49109084306016659 0.10009209266177201 0.099950391602198027 0.0031494790945940563
16700000000 0.064533055841013709 0.10117057232130598 -0.48842042746734132 0.11240164226370342 -0.48842042746734132 0.11240164226370342 0.099931557808647847 0.0036991558411182731
16750000000 0.06407713640600643 0.10145994574217962 -0.48544151506401723 0.12464019657923173 -0.48544151506401723 0.12464019657923173 0.099909701093094369 0.0042487206884599628
16800000000 0.063619919411176798 0.10174726460261899 -0.48215598739511634 0.13680002547513756 -0.48215598739511634 0.13680002547513756 0.099884822116701244 0.0047981570123249908
16850000000 0.063161414115152997 0.10203252308442712 -0.47856591967033485 0.14887344854286377 -0.47856591967033485 0.14887344854286377 0.099856921632056006 0.0053474481923061392
16900000000 0.062701629802651732 0.10231571541112938 -0.4746735794533945 0.16085283994962601 -0.4746735794533945 0.16085283994962601 0.099826000483146229 0.0058965776123875036
16950000000 0.06224057578428957 0.10259683584809091 -0.47048142522980274 0.17273063325505261 -0.47048142522980274 0.17273063325505261 0.099792059605333966 0.0064455286614457877
17000000000 0.061778261396394592 0.10287587870263239 -0.46599210485401932 0.18449932619031054 -0.46599210485401932 0.18449932619031054 0.099755100025328003 0.006994284733753413
17050000000 0.061314696000817584 0.10315283832414562 -0.46120845387701498 0.19615148539669908 -0.46120845387701498 0.19615148539669908 0.099715122861153069 0.0075428292294811867
17100000000 0.060849888984741612 0.10342770910420786 -0.4561334937552764 0.20767975112071752 -0.4561334937552764 0.20767975112071752 0.099672129322115818 0.0080911455551997101
17150000000 0.060383849760493151 0.10370048547669478 -0.45077042994239053 0.21907684186264498 -0.45077042994239053 0.21907684186264498 0.099626120708766697 0.008639217124382521
17200000000 0.059916587765350332 0.10397116191789459 -0.44512264986440991 0.2303355589756908 -0.44512264986440991 0.2303355589756908 0.099577098412863552 0.0091870273579058599
17250000000 0.05944811246135287 0.10423973294661847 -0.43919372078028313 0.24144879121281296 -0.43919372078028313 0.24144879121281296 0.099525063917326448 0.0097345596845525
17300000000 0.058978433335109534 0.1045061931243122 -0.43298738752869687 0.25240951921833682 -0.43298738752869687 0.25240951921833682 0.099470018796195186 0.010281797541510738
17350000000 0.05850755989760649 0.10477053705516633 -0.42650757016275581 0.26321081996152779 -0.42650757016275581 0.26321081996152779 0.099411964714580262 0.010828724374877348
17400000000 0.05803550168401491 0.10503275938622531 -0.41975836147399226 0.27384587110932851 -0.41975836147399226 0.27384587110932851 0.099350903428613663 0.01137532364015763
17450000000 0.057562268253497327 0.10529285480749588 -0.41274402440727309 0.28430795533548869 -0.41274402440727309 0.28430795533548869 0.099286836785394073 0.011921578802764969
17500000000 0.057087869189014609 0.10555081805205464 -0.40546898936823061 0.29459046456337273 -0.40546898936823061 0.29459046456337273 0.099219766722933006 0.01246747333852284
17550000000 0.056612314097131709 0.1058066438961547 -0.39793785142492366 0.3046869041397634 -0.39793785142492366 0.3046869041397634 0.09914969527009472 0.013012990734162847
17600000000 0.056135612607822787 0.10606032715933145 -0.39015536740549572 0.31459089693702263 -0.39015536740549572 0.31459089693702263 0.099076624546534819 0.01355811448782532
17650000000 0.055657774374276964 0.10631186270450774 -0.38212645289365865 0.32429618738102417 -0.38212645289365865 0.32429618738102417 0.099000556762637665 0.014102828109558504
17700000000 0.055178809072701875 0.10656124543809682 -0.37385617912390456 0.33379664540230597 -0.37385617912390456 0.33379664540230597 0.098921494219447709 0.0146471151218167
17750000000 0.054698726402128417 0.10680847031010743 -0.36534976977840705 0.34308627030795463 -0.36534976977840705 0.34308627030795463 0.098839439308601229 0.015190959059959366
17800000000 0.054217536084214799 0.10705353231424389 -0.35661259768762976 0.35215919457177147 -0.35661259768762976 0.35215919457177147 0.098754394512252125 0.015734343472748977
17850000000 0.053735247863048015 0.1072964264880093 -0.3476501814367321 0.36100968754032781 -0.3476501814367321 0.36100968754032781 0.098666362403000016 0.016277251922848415
17900000000 0.053251871504948298 0.10753714791280479 -0.33846818187991368 0.3696321590525688 -0.33846818187991368 0.3696321590525688 0.098575345643808904 0.016819667987318286
17950000000 0.052767416798270343 0.10777569171402981 -0.32907239856489601 0.37802116297067823 -0.32907239856489601 0.37802116297067823 0.098481346987928667 0.017361575258114267
18000000000 0.052281893553205373 0.10801205306118056 -0.31946876606980484 0.38617140061997651 -0.31946876606980484 0.38617140061997651 0.098384369278812125 0.017902957342582439
18050000000 0.051795311601582641 0.10824622716794782 -0.30966335025476172 0.39407772413567715 -0.30966335025476172 0.39407772413567715 0.098284415450026988 0.018443797863956432
18100000000 0.051307680796669801 0.10847820929231389 -0.299662344430559 0.40173513971438807 -0.299662344430559 0.40173513971438807 0.098181488525169475 0.018984080461851103
18150000000 0.050819011012974091 0.10870799473664863 -0.28947206544683157 0.40913881076830527 -0.28947206544683157 0.40913881076830527 0.098075591617770796 0.019523788792759376
18200000000 0.050329312146041846 0.10893557884780471 -0.27909894970219706 0.41628406098010579 -0.27909894970219706 0.41628406098010579 0.097966727931204159 0.020062906530545887
18250000000 0.049838594112258661 0.10916095701721162 -0.26854954907889111 0.42316637725660844 -0.26854954907889111 0.42316637725660844 0.097854900758588118 0.020601417366939729
18300000000 0.04934686684864769 0.10938412468096925 -0.25783052680445706 0.42978141257934149 -0.25783052680445706 0.42978141257934149 0.097740113482686228 0.021139305012029083
18350000000 0.04885414031266945 0.10960507731994001 -0.24694865324310841 0.43612498875021249 -0.24694865324310841 0.43612498875021249 0.097622369575804974 0.021676553194753558
18400000000 0.048360424482019056 0.10982381045984028 -0.23591080161942257 0.44219309903054732 -0.23591080161942257 0.44219309903054732 0.0975016725996877 0.022213145663397004
18450000000 0.047865729354425714 0.11004031967133174 -0.22472394367706297 0.44798191067183318 -0.22472394367706297 0.44798191067183318 0.097378026205409418 0.0227490661860782
18500000000 0.047370064947448408 0.11025460057011006 -0.21339514527527867 0.45348776733656299 -0.21339514527527867 0.45348776733656299 0.09725143413326448 0.023284298551241752
18550000000 0.046873441298274809 0.11046664881699446 -0.20193156192595549 0.45870719140765831 -0.20193156192595549 0.45870719140765831 0.097121900212652282 0.023818826568149865
18600000000 0.046375868463516566 0.11067646011801516 -0.19034043427403941 0.4636368861850057 -0.19034043427403941 0.4636368861850057 0.096989428361965085 0.024352634067370281
18650000000 0.045877356519006637 0.11088403022450044 -0.17862908352419324 0.46827373796772398 -0.17862908352419324 0.46827373796772398 0.096854022588465677 0.024885704901267323
18700000000 0.045377915559595056 0.11108935493316298 -0.16680490681656462 0.47261481802084365 -0.16680490681656462 0.47261481802084365 0.09671568698816882 0.025418022944488861
18750000000 0.044877555698943923 0.11129243008618411 -0.15487537255459435 0.47665738442515887 -0.15487537255459435 0.47665738442515887 0.096574425745715509 0.025949572094454497
18800000000 0.044376287069323631 0.11149325157129913 -0.14284801568781313 0.4803988838090823 -0.14284801568781313 0.4803988838090823 0.096430243134247778 0.026480336271843229
18850000000 0.043874119821406349 0.11169181532187974 -0.1307304329526045 0.48383695296141105 -0.1307304329526045 0.48383695296141105 0.096283143515278308 0.027010299421078771
18900000000 0.043371064124062136 0.11188811731701678 -0.11853027807394524 0.48696942032397794 -0.11853027807394524 0.48696942032397794 0.096133131338559663 0.027539445510816603
18950000000 0.042867130164151446 0.11208215358160148 -0.10625525693114812 0.48979430736325802 -0.10625525693114812 0.48979430736325802 0.095980211141948726 0.028067758534427785
19000000000 0.042362328146319593 0.11227392018640622 -0.093913122690660961 0.49230982982005028 -0.093913122690660961 0.49230982982005028 0.095824387551269666 0.028595222510483461
19050000000 0.041856668292790632 0.11246341324816402 -0.08151167090900574 0.49451439883645443 -0.08151167090900574 0.49451439883645443 0.095665665280174644 0.029121821483239108
19100000000 0.041350160843158928 0.11265062892964633 -0.069058734608931679 0.49640662195942864 -0.069058734608931679 0.49640662195942864 0.095504049129999116 0.029647539523115017
19150000000 0.040842816054183155 0.11283556343974259 -0.056562179331915138 0.49798530402029162 -0.056562179331915138 0.49798530402029162 0.095339543989620842 0.030172360727181657
19200000000 0.040334644199577947 0.11301821303353479 -0.044029898170113192 0.49924944788961706 -0.044029898170113192 0.49924944788961706 0.09517215483530625 0.030696269219636741
19250000000 0.039825655569805968 0.11319857401237507 -0.031469806780916147 0.5001982551070423 -0.031469806780916147 0.5001982551070423 0.095001886730565921 0.031219249152288846
19300000000 0.039315860471869718 0.11337664272395999 -0.0188898383872513 0.50083112638559268 -0.0188898383872513 0.50083112638559268 0.094828744825996389 0.031741284705034616
19350000000 0.03880526922910247 0.11355241556240399 -0.0062979387667880526 0.50114766199020389 -0.0062979387667880526 0.50114766199020389 0.094652734359127064 0.032262360086338641
19400000000 0.038293892180959153 0.11372588896831307 0.0062979387667874255 0.501147661990204 0.0062979387667874255 0.501147661990204 0.094473860654260347 0.032782459533710201
19450000000 0.037781739682807992 0.11389705942885668 0.018889838387250672 0.50083112638559268 0.018889838387250672 0.50083112638559268 0.094292129122313842 0.03330156731418063
19500000000 0.037268822105719308 0.11406592347783906 0.031469806780915509 0.5001982551070423 0.031469806780915509 0.5001982551070423 0.094107545260651362 0.033819667724779089
19550000000 0.036755149836256426 0.11423247769576889 0.044029898170112568 0.49924944788961712 0.044029898170112568 0.49924944788961712 0.093920114652920828 0.034336745093008061
19600000000 0.036240733276265362 0.11439671870992897 0.056562179331914521 0.49798530402029167 0.056562179331914521 0.49798530402029167 0.093729842968883939 0.034852783777316057
19650000000 0.035725582842663778 0.11455864319444416 0.069058734608931041 0.49640662195942864 0.069058734608931041 0.49640662195942864 0.09353673596424493 0.035367768167572769
19700000000 0.035209708967230545 0.11471824787034947 0.081511670909005129 0.49451439883645465 0.081511670909005129 0.49451439883645465 0.093340799480475176 0.035881682685539151
19750000000 0.034693122096393907 0.11487552950565544 0.093913122690660808 0.49230982982005039 0.093913122690660808 0.49230982982005039 0.093142039444639044 0.036394511785340665
19800000000 0.034175832691020293 0.11503048491541452 0.10625525693114751 0.48979430736325813 0.10625525693114751 0.48979430736325813 0.092940461869212565 0.03690623995393575
19850000000 0.033657851226202656 0.11518311096178473 0.11853027807394463 0.48696942032397805 0.11853027807394463 0.48696942032397805 0.092736072851901316 0.03741685171158643
19900000000 0.033139188191047796 0.11533340455409402 0.13073043295260384 0.48383695296141094 0.13073043295260384 0.48383695296141094 0.092528878575458037 0.037926331612326288
19950000000 0.032619854088464406 0.11548136264890234 0.14284801568781258 0.48039888380908269 0.14284801568781258 0.48039888380908269 0.092318885307493506 0.038434664244426917
20000000000 0.032099859434950466 0.11562698225006314 0.15487537255459369 0.47665738442515881 0.15487537255459369 0.47665738442515881 0.09210609940028841 0.038941834230865092
