! Synthetic calibration mixer + filter truth from mixer_dummy_SOL_6files.
! This file excludes the synthetic input error box E.
! Frequency column = RF/Input frequency (Hz).
! RF=10..20 GHz; LO=5 GHz fixed; IF=RF-5 GHz=5..15 GHz.
! 201 points; 50 MHz step; reference impedance 50 ohm.
! Non-inverting reciprocal conversion: C21=C12.
! Conversion magnitude -6 dB; phase at RF=10 GHz is 0 deg.
! Phase slope: -2*pi*(RF-10 GHz)*80 ps.
! Conversion coefficients stored in Touchstone layout for comparison.
! Not an ordinary same-frequency physical two-port.
! SOL reflection characterization has an overall transmission sign ambiguity.
! Order: RF_Hz S11_Re S11_Im S21_Re S21_Im S12_Re S12_Im S22_Re S22_Im
# Hz S RI R 50
10000000000 0.1105273192803462 0.046730201077038062 0.50118723362727224 0 0.50118723362727224 0 0.07648421872844885 -0.064421768723769104
10050000000 0.11031591499799449 0.047227099192680186 0.50102895332781949 -0.012594883016035629 0.50102895332781949 -0.012594883016035629 0.076837379849178211 -0.064000133264807385
10100000000 0.11010227682213376 0.047723040961177486 0.50055421240269093 -0.025181810834007164 0.50055421240269093 -0.025181810834007164 0.077188216645026383 -0.063576561806694729
10150000000 0.1098864090789298 0.048218016339726118 0.49976331070843016 -0.03775283328052411 0.49976331070843016 -0.03775283328052411 0.077536718503207036 -0.063151067162435459
10200000000 0.10966831613969699 0.048712015305091554 0.49865674779549901 -0.05030001022836951 0.49865674779549901 -0.05030001022836951 0.077882874881565534 -0.062723662203210115
10250000000 0.10944800242080995 0.049205027853811659 0.49723522259275066 -0.06281541661165442 0.49723522259275066 -0.06281541661165442 0.078226675308897833 -0.062294359857986141
10300000000 0.10922547238361389 0.049697044002399139 0.49549963296597127 -0.075291147431459468 0.49549963296597127 -0.075291147431459468 0.078568109385267232 -0.061863173113126717
10350000000 0.10900073053433453 0.050188053787543818 0.49345107515076869 -0.087719322748801509 0.49345107515076869 -0.087719322748801509 0.078907166782318947 -0.061430115011998014
10400000000 0.1087737814239866 0.050678047266314315 0.49109084306016659 -0.10009209266177209 0.49109084306016659 -0.10009209266177209 0.079243837243592574 -0.060995198654574548
10450000000 0.10854462964828182 0.051167014516359424 0.48842042746734127 -0.11240164226370362 0.48842042746734127 -0.11240164226370362 0.079578110584832329 -0.060558437197042986
10500000000 0.10831327984753585 0.051654945636109062 0.48544151506401712 -0.12464019657923203 0.48544151506401712 -0.12464019657923203 0.079909976694295115 -0.060119843851404099
10550000000 0.10807973670657424 0.052141830744974707 0.48215598739511639 -0.13680002547513778 0.48215598739511639 -0.13680002547513778 0.080239425533056463 -0.059679431885073159
10600000000 0.10784400495463758 0.052627659983549548 0.47856591967033468 -0.14887344854286383 0.47856591967033468 -0.14887344854286383 0.080566447135314107 -0.059237214620478554
10650000000 0.10760608936528585 0.053112423513808113 0.4746735794533945 -0.16085283994962599 0.4746735794533945 -0.16085283994962599 0.080891031608689504 -0.058793205434658824
10700000000 0.10736599475630154 0.053596111519305469 0.47048142522980269 -0.1727306332550527 0.47048142522980269 -0.1727306332550527 0.0812131691345271 -0.058347417758857989
10750000000 0.10712372598959233 0.054078714205376036 0.46599210485401926 -0.18449932619031073 0.46599210485401926 -0.18449932619031073 0.081532849968191295 -0.057899865078119221
10800000000 0.10687928797109243 0.054560221799331919 0.46120845387701481 -0.19615148539669916 0.46120845387701481 -0.19615148539669916 0.081850064439361256 -0.057450560930877019
10850000000 0.10663268565066339 0.055040624550660784 0.45613349375527629 -0.20767975112071776 0.45613349375527629 -0.20767975112071776 0.08216480295232341 -0.056999518908547535
10900000000 0.10638392402199377 0.055519912731223343 0.45077042994239036 -0.21907684186264531 0.45077042994239036 -0.21907684186264531 0.082477055986261733 -0.056546752655117598
10950000000 0.10613300812249803 0.055998076635450311 0.44512264986440991 -0.23033555897569083 0.44512264986440991 -0.23033555897569083 0.08278681409554578 -0.056092275866731801
11000000000 0.10587994303321457 0.056475106580538968 0.43919372078028318 -0.24144879121281312 0.43919372078028318 -0.24144879121281312 0.083094067910016362 -0.055636102291278383
11050000000 0.1056247338787028 0.056950992906649227 0.43298738752869698 -0.25240951921833688 0.43298738752869698 -0.25240951921833688 0.083398808135269009 -0.055178245727973169
11100000000 0.10536738582693939 0.057425725977099246 0.42650757016275576 -0.26321081996152812 0.42650757016275576 -0.26321081996152812 0.08370102555293514 -0.054718720026942329
11150000000 0.10510790408921358 0.057899296178560579 0.41975836147399231 -0.2738458711093289 0.41975836147399231 -0.2738458711093289 0.084000711020960947 -0.054257539088803236
11200000000 0.10484629392002168 0.058371693921252819 0.41274402440727304 -0.28430795533548886 0.41274402440727304 -0.28430795533548886 0.084297855473883854 -0.053794716864244141
11250000000 0.10458256061696071 0.058842909639137818 0.40546898936823039 -0.29459046456337284 0.40546898936823039 -0.29459046456337284 0.084592449923106799 -0.053330267353602016
11300000000 0.10431670952062103 0.059312933790113403 0.39793785142492372 -0.30468690413976329 0.39793785142492372 -0.30468690413976329 0.0848844854571702 -0.052864204606439147
11350000000 0.10404874601447822 0.059781756856206569 0.39015536740549589 -0.3145908969370228 0.39015536740549589 -0.3145908969370228 0.085173953242021386 -0.0523965427211181
11400000000 0.10377867552478419 0.060249369343766242 0.38212645289365865 -0.32429618738102434 0.38212645289365865 -0.32429618738102434 0.085460844521281956 -0.051927295844375256
11450000000 0.10350650352045708 0.060715761783655536 0.37385617912390467 -0.33379664540230608 0.37385617912390467 -0.33379664540230608 0.085745150616512583 -0.051456478170892855
11500000000 0.10323223551297067 0.061180924731443501 0.365349769778407 -0.34308627030795469 0.365349769778407 -0.34308627030795469 0.086026862927475578 -0.050984103942869577
11550000000 0.10295587705624278 0.061644848767596301 0.35661259768762954 -0.35215919457177164 0.35661259768762954 -0.35215919457177164 0.086305972932395003 -0.050510187449589843
11600000000 0.10267743374652269 0.062107524497668085 0.34765018143673204 -0.36100968754032803 0.34765018143673204 -0.36100968754032803 0.086582472188214493 -0.050034743026991402
11650000000 0.10239691122227791 0.062568942552491111 0.33846818187991373 -0.36963215905256891 0.33846818187991373 -0.36963215905256891 0.086856352330852649 -0.049557785057231823
11700000000 0.10211431516407998 0.063029093588365559 0.32907239856489606 -0.37802116297067828 0.32907239856489606 -0.37802116297067828 0.087127605075456027 -0.049079327968253282
11750000000 0.10182965129448941 0.063487968287248647 0.31946876606980462 -0.38617140061997657 0.31946876606980462 -0.38617140061997657 0.087396222216649819 -0.04859938623334626
11800000000 0.10154292537793982 0.063945557356943433 0.30966335025476144 -0.39407772413567721 0.30966335025476144 -0.39407772413567721 0.087662195628785966 -0.048117974370711636
11850000000 0.10125414322062125 0.064401851531286872 0.29966234443055906 -0.40173513971438818 0.29966234443055906 -0.40173513971438818 0.087925517266189024 -0.047635106943021525
11900000000 0.10096331067036252 0.064856841570337553 0.28947206544683129 -0.40913881076830566 0.28947206544683129 -0.40913881076830566 0.088186179163399547 -0.047150798556978818
11950000000 0.10067043361651279 0.065310518260562681 0.27909894970219684 -0.41628406098010595 0.27909894970219684 -0.41628406098010595 0.088444173435415038 -0.04666506386287525
12000000000 0.10037551798982243 0.065762872415024834 0.26854954907889095 -0.42316637725660849 0.26854954907889095 -0.42316637725660849 0.088699492277928435 -0.046177917554148289
12050000000 0.10007856976232279 0.066213894873567811 0.25783052680445701 -0.42978141257934155 0.25783052680445701 -0.42978141257934155 0.088952127967564201 -0.045689374366936604
12100000000 0.099779594947205341 0.066663576503002253 0.24694865324310844 -0.43612498875021249 0.24694865324310844 -0.43612498875021249 0.089202072862112014 -0.045199449079634385
12150000000 0.099478599598699854 0.067111908197290529 0.23591080161942232 -0.44219309903054743 0.23591080161942232 -0.44219309903054743 0.089449319400757857 -0.044708156512444183
12200000000 0.099175589811951875 0.067558880877731153 0.2247239436770628 -0.44798191067183313 0.2247239436770628 -0.44798191067183313 0.089693860104312795 -0.044215511526928715
12250000000 0.098870571722899203 0.0680044854931426 0.21339514527527853 -0.4534877673365631 0.21339514527527853 -0.4534877673365631 0.08993568757543921 -0.043721529025561208
12300000000 0.098563551508147745 0.068448713020046653 0.2019315619259551 -0.45870719140765837 0.2019315619259551 -0.45870719140765837 0.090174794498874514 -0.043226223951274678
12350000000 0.098254535384846339 0.068891554462851098 0.19034043427403907 -0.46363688618500598 0.19034043427403907 -0.46363688618500598 0.09041117364165252 -0.04272961128700984
12400000000 0.097943529610560937 0.069333000854031795 0.1786290835241931 -0.46827373796772415 0.1786290835241931 -0.46827373796772415 0.090644817853322179 -0.042231706055261921
12450000000 0.097630540483147815 0.069773043254314437 0.16680490681656446 -0.47261481802084371 0.16680490681656446 -0.47261481802084371 0.090875720066163901 -0.041732523317626218
12500000000 0.097315574340626154 0.070211672752855461 0.15487537255459438 -0.47665738442515876 0.15487537255459438 -0.47665738442515876 0.09110387329540337 -0.041232078174342469
12550000000 0.096998637561049511 0.070648880467422501 0.14284801568781277 -0.48039888380908252 0.14284801568781277 -0.48039888380908252 0.091329270639422797 -0.040730385763838112
12600000000 0.096679736562376911 0.07108465754457427 0.13073043295260431 -0.48383695296141094 0.13073043295260431 -0.48383695296141094 0.091551905279969703 -0.040227461262270295
12650000000 0.096358877802342646 0.071518995159839865 0.1185302780739451 -0.48696942032397805 0.1185302780739451 -0.48696942032397805 0.09177177048236318 -0.039723319883066849
12700000000 0.096036067778325629 0.071951884517897399 0.10625525693114773 -0.48979430736325807 0.10625525693114773 -0.48979430736325807 0.09198885959569765 -0.03921797687646604
12750000000 0.095711313027217845 0.072383316852752191 0.093913122690661016 -0.49230982982005023 0.093913122690661016 -0.49230982982005023 0.092203166053043961 -0.038711447529055289
12800000000 0.095384620125291877 0.072813283427914183 0.08151167090900556 -0.49451439883645448 0.08151167090900556 -0.49451439883645448 0.092414683371648154 -0.038203747163308738
12850000000 0.095055995688067857 0.073241775536574918 0.069058734608931402 -0.49640662195942864 0.069058734608931402 -0.49640662195942864 0.092623405153127433 -0.03769489113712373
12900000000 0.094725446370179392 0.073668784501783838 0.056562179331915083 -0.49798530402029162 0.056562179331915083 -0.49798530402029162 0.09282932508366383 -0.037184894843356249
12950000000 0.094392978865238869 0.074094301676624008 0.044029898170112804 -0.49924944788961712 0.044029898170112804 -0.49924944788961712 0.093032436934195162 -0.03667377370935529
13000000000 0.094058599905701909 0.074518318444387166 0.031469806780915967 -0.5001982551070423 0.031469806780915967 -0.5001982551070423 0.09323273456060345 -0.036161543196496192
13050000000 0.093722316262731004 0.074940826218748244 0.018889838387251015 -0.50083112638559268 0.018889838387251015 -0.50083112638559268 0.093430211903900745 -0.035648218799712909
13100000000 0.093384134746058473 0.075361816443939272 0.0062979387667875487 -0.501147661990204 0.0062979387667875487 -0.501147661990204 0.093624862990412477 -0.035133816047029282
13150000000 0.093044062203848421 0.075781280594922548 -0.0062979387667873752 -0.501147661990204 -0.0062979387667873752 -0.501147661990204 0.093816681931958135 -0.034618350499089373
13200000000 0.092702105522558226 0.07619921017756337 -0.018889838387250956 -0.50083112638559268 -0.018889838387250956 -0.50083112638559268 0.094005662926029354 -0.034101837748686692
13250000000 0.092358271626799007 0.076615596728801985 -0.031469806780915793 -0.5001982551070423 -0.031469806780915793 -0.5001982551070423 0.094191800255965463 -0.033584293420292559
13300000000 0.092012567479195409 0.07703043181682491 -0.04402989817011263 -0.49924944788961712 -0.04402989817011263 -0.49924944788961712 0.094375088291126452 -0.033065733169583424
13350000000 0.091665000080244585 0.077443707041235821 -0.056562179331914909 -0.49798530402029162 -0.056562179331914909 -0.49798530402029162 0.094555521487063199 -0.032546172682967354
13400000000 0.091315576468174509 0.077855414033225559 -0.069058734608931444 -0.49640662195942864 -0.069058734608931444 -0.49640662195942864 0.094733094385685321 -0.032025627677109425
13450000000 0.090964303718801362 0.078265544455741562 -0.081511670909005393 -0.49451439883645448 -0.081511670909005393 -0.49451439883645448 0.094907801615426154 -0.031504113898456393
13500000000 0.09061118894538632 0.078674090003656841 -0.093913122690660836 -0.49230982982005028 -0.093913122690660836 -0.49230982982005028 0.095079637891405333 -0.030981647122760282
13550000000 0.090256239298491511 0.079081042403937971 -0.10625525693114747 -0.48979430736325813 -0.10625525693114747 -0.48979430736325813 0.095248598015588604 -0.030458243154601213
13600000000 0.089899461965835134 0.079486393415812762 -0.11853027807394505 -0.48696942032397811 -0.11853027807394505 -0.48696942032397811 0.095414676876945104 -0.029933917826909313
13650000000 0.089540864172145962 0.079890134830937085 -0.13073043295260414 -0.48383695296141099 -0.13073043295260414 -0.48383695296141099 0.095577869451601918 -0.029408687000485767
13700000000 0.089180453179017086 0.080292258473561084 -0.14284801568781261 -0.48039888380908258 -0.14284801568781261 -0.48039888380908258 0.095738170802996139 -0.028882566563523018
13750000000 0.088818236284758795 0.080692756200694729 -0.1548753725545941 -0.47665738442515881 -0.1548753725545941 -0.47665738442515881 0.095895576082024092 -0.028355572431124167
13800000000 0.088454220824250807 0.081091619902272719 -0.1668049068165644 -0.47261481802084376 -0.1668049068165644 -0.47261481802084376 0.096050080527188109 -0.027827720544821535
13850000000 0.088088414168793788 0.081488841501318743 -0.17862908352419296 -0.46827373796772426 -0.17862908352419296 -0.46827373796772426 0.096201679464740467 -0.027299026872094425
13900000000 0.08772082372595999 0.081884412954109004 -0.19034043427403891 -0.46363688618500604 -0.19034043427403891 -0.46363688618500604 0.096350368308824902 -0.026769507405886125
13950000000 0.087351456939443337 0.082278326250335057 -0.20193156192595496 -0.45870719140765848 -0.20193156192595496 -0.45870719140765848 0.096496142561615206 -0.026239178164120108
14000000000 0.086980321288908619 0.082670573413266155 -0.21339514527527836 -0.45348776733656315 -0.21339514527527836 -0.45348776733656315 0.096638997813451324 -0.025708055189215501
14050000000 0.086607424289840071 0.083061146499910657 -0.22472394367706264 -0.44798191067183324 -0.22472394367706264 -0.44798191067183324 0.096778929742972822 -0.025176154547601793
14100000000 0.086232773493389189 0.083450037601176863 -0.23591080161942207 -0.4421930990305476 -0.23591080161942207 -0.4421930990305476 0.096915934117249483 -0.024643492329232831
14150000000 0.085856376486221797 0.083837238842033313 -0.2469486532431083 -0.43612498875021255 -0.2469486532431083 -0.43612498875021255 0.097050006791909449 -0.0241100846471001
14200000000 0.085478240890364446 0.084222742381668061 -0.25783052680445673 -0.42978141257934166 -0.25783052680445673 -0.42978141257934166 0.097181143711264503 -0.023575947636745313
14250000000 0.085098374363049997 0.084606540413647652 -0.26854954907889078 -0.42316637725660861 -0.26854954907889078 -0.42316637725660861 0.097309340908432851 -0.023041097455772302
14300000000 0.084716784596562678 0.084988625166075013 -0.27909894970219656 -0.41628406098010612 -0.27909894970219656 -0.41628406098010612 0.097434594505459063 -0.022505550283358253
14350000000 0.084333479318082202 0.085368988901747003 -0.28947206544683118 -0.40913881076830572 -0.28947206544683118 -0.40913881076830572 0.097556900713431371 -0.021969322319764298
14400000000 0.08394846628952736 0.085747623918310908 -0.29966234443055878 -0.40173513971438835 -0.29966234443055878 -0.40173513971438835 0.097676255832596315 -0.021432429785845444
14450000000 0.083561753307398845 0.086124522548420651 -0.30966335025476138 -0.39407772413567727 -0.30966335025476138 -0.39407772413567727 0.097792656252470633 -0.0208948889225599
14500000000 0.083173348202621303 0.086499677159891819 -0.31946876606980457 -0.38617140061997662 -0.31946876606980457 -0.38617140061997662 0.097906098451950516 -0.020356715990477791
14550000000 0.082783258840384844 0.086873080155856347 -0.32907239856489601 -0.37802116297067839 -0.32907239856489601 -0.37802116297067839 0.098016578999418069 -0.019817927269289271
14600000000 0.082391493119985726 0.087244723974916338 -0.33846818187991357 -0.36963215905256913 -0.33846818187991357 -0.36963215905256913 0.098124094552845154 -0.019278539057312073
14650000000 0.081998058974666416 0.087614601091297151 -0.34765018143673193 -0.36100968754032814 -0.34765018143673193 -0.36100968754032814 0.098228641859894467 -0.018738567670998487
14700000000 0.081602964371454881 0.087982704014999816 -0.35661259768762948 -0.35215919457177164 -0.35661259768762948 -0.35215919457177164 0.098330217758017965 -0.018198029444441766
14750000000 0.081206217311003345 0.088349025291952724 -0.36534976977840683 -0.34308627030795485 -0.36534976977840683 -0.34308627030795485 0.09842881917455247 -0.017656940728882044
14800000000 0.080807825827426225 0.088713557504162502 -0.37385617912390445 -0.3337966454023063 -0.37385617912390445 -0.3337966454023063 0.098524443126812647 -0.017115317892211695
14850000000 0.08040779798813745 0.089076293269864326 -0.38212645289365849 -0.3242961873810245 -0.38212645289365849 -0.3242961873810245 0.098617086722181224 -0.016573177318480247
14900000000 0.080006141893687127 0.089437225243671342 -0.39015536740549578 -0.31459089693702291 -0.39015536740549578 -0.31459089693702291 0.098706747158196523 -0.016030535407398697
14950000000 0.079602865677597376 0.089796346116723408 -0.39793785142492361 -0.30468690413976346 -0.39793785142492361 -0.30468690413976346 0.098793421722637179 -0.015487408573843493
15000000000 0.07919797750619785 0.090153648616835128 -0.40546898936823023 -0.29459046456337312 -0.40546898936823023 -0.29459046456337312 0.098877107793604244 -0.014943813247359914
15050000000 0.078791485578460177 0.090509125508643068 -0.41274402440727292 -0.28430795533548903 -0.41274402440727292 -0.28430795533548903 0.098957802839600428 -0.014399765871665145
15100000000 0.078383398125831977 0.090862769593752307 -0.41975836147399226 -0.27384587110932901 -0.41975836147399226 -0.27384587110932901 0.099035504419606735 -0.013855282904150824
15150000000 0.077973723412070234 0.091214573710882235 -0.42650757016275564 -0.26321081996152834 -0.42650757016275564 -0.26321081996152834 0.099110210183156341 -0.01331038081538518
15200000000 0.077562469733073902 0.091564530736011493 -0.43298738752869681 -0.25240951921833715 -0.43298738752869681 -0.25240951921833715 0.099181917870405562 -0.012765076088614864
15250000000 0.077149645416715928 0.091912633582522274 -0.43919372078028307 -0.24144879121281332 -0.43919372078028307 -0.24144879121281332 0.099250625312202329 -0.012219385219266257
15300000000 0.076735258822674624 0.092258875201343821 -0.44512264986440986 -0.23033555897569091 -0.44512264986440986 -0.23033555897569091 0.09931633043015177 -0.011673324714446574
15350000000 0.076319318342264325 0.092603248581095227 -0.45077042994239025 -0.2190768418626455 -0.45077042994239025 -0.2190768418626455 0.099379031236679086 -0.011126911092444416
15400000000 0.075901832398265576 0.092945746748227268 -0.45613349375527618 -0.20767975112071804 -0.45613349375527618 -0.20767975112071804 0.099438725835089656 -0.010580160882230207
15450000000 0.075482809444754481 0.093286362767163789 -0.4612084538770147 -0.19615148539669938 -0.4612084538770147 -0.19615148539669938 0.099495412419626422 -0.010033090622956091
15500000000 0.075062257966931514 0.093625089740442036 -0.46599210485401921 -0.18449932619031087 -0.46599210485401921 -0.18449932619031087 0.099549089275524527 -0.0094857168634557166
15550000000 0.074640186480949736 0.093961920808852406 -0.47048142522980263 -0.17273063325505292 -0.47048142522980263 -0.17273063325505292 0.099599754779063188 -0.0089380561617435472
15600000000 0.074216603533742292 0.094296849151577225 -0.47467357945339439 -0.16085283994962632 -0.47467357945339439 -0.16085283994962632 0.099647407397614754 -0.0083901250845140659
15650000000 0.073791517702849432 0.094629867986329011 -0.47856591967033463 -0.14887344854286408 -0.47856591967033463 -0.14887344854286408 0.099692045689691186 -0.0078419402066405818
15700000000 0.07336493759624467 0.094960970569487782 -0.48215598739511639 -0.13680002547513773 -0.48215598739511639 -0.13680002547513773 0.099733668304987533 -0.0072935181106738127
15750000000 0.072936871852160592 0.095290150196237502 -0.48544151506401712 -0.12464019657923207 -0.48544151506401712 -0.12464019657923207 0.099772273984422843 -0.0067448753863403729
15800000000 0.072507329138913904 0.095617400200701988 -0.48842042746734127 -0.11240164226370376 -0.48842042746734127 -0.11240164226370376 0.09980786156017829 -0.0061960286300408183
15850000000 0.072076318154729882 0.095942713956079825 -0.49109084306016659 -0.10009209266177212 -0.49109084306016659 -0.10009209266177212 0.09984042995573239 -0.0056469944443476947
15900000000 0.071643847627566176 0.096266084874778599 -0.49345107515076864 -0.087719322748801662 -0.49345107515076864 -0.087719322748801662 0.099869978185893687 -0.0050977894375032308
15950000000 0.071209926314936237 0.096587506408548254 -0.49549963296597122 -0.075291147431459732 -0.49549963296597122 -0.075291147431459732 0.099896505356830465 -0.0045484302229170269
16000000000 0.070774563003731777 0.096906972048613718 -0.4972352225927506 -0.062815416611654795 -0.4972352225927506 -0.062815416611654795 0.099920010666097792 -0.0039989334186634083
16050000000 0.070337766510045002 0.097224475325806678 -0.49865674779549896 -0.050300010228369774 -0.49865674779549896 -0.050300010228369774 0.099940493402661909 -0.0034493156469788261
16100000000 0.069899545678989955 0.097540009810696618 -0.49976331070843016 -0.037752833280524055 -0.49976331070843016 -0.037752833280524055 0.099957952946921558 -0.0028995935337589405
16150000000 0.069459909384523538 0.097853569113721034 -0.50055421240269093 -0.02518181083400722 -0.50055421240269093 -0.02518181083400722 0.09997238877072688 -0.0023497837080557779
16200000000 0.069018866529265629 0.098165146885314719 -0.50102895332781949 -0.012594883016035797 -0.50102895332781949 -0.012594883016035797 0.099983800437395284 -0.0017999028015746182
16250000000 0.068576426044319017 0.098474736816038466 -0.50118723362727224 -6.1377734143515571e-17 -0.50118723362727224 -6.1377734143515571e-17 0.099992187601724736 -0.0012499674481709746
16300000000 0.06813259688908839 0.098782332636706771 -0.50102895332781949 0.012594883016035454 -0.50102895332781949 0.012594883016035454 0.099997550010004155 -0.00069999428334732868
16350000000 0.067687388051098973 0.099087928118514731 -0.50055421240269105 0.025181810834006876 -0.50055421240269105 0.025181810834006876 0.09999988750002109 -0.0001499999437499898
16400000000 0.067240808545814518 0.099391517073164334 -0.49976331070843016 0.03775283328052393 -0.49976331070843016 0.03775283328052393 0.099999200001066671 0.00039999893333419816
16450000000 0.066792867416454765 0.099693093352989579 -0.49865674779549901 0.050300010228369434 -0.49865674779549901 0.050300010228369434 0.099995487533937666 0.00094998571048116585
16500000000 0.066343573733812264 0.099992650851081125 -0.49723522259275066 0.062815416611654448 -0.49723522259275066 0.062815416611654448 0.099988750210935923 0.0014999437506328216
16550000000 0.065892936596068735 0.10029018350140988 -0.49549963296597127 0.075291147431459385 -0.49549963296597127 0.075291147431459385 0.099978988235864957 0.0020498564176004101
16600000000 0.065440965128610806 0.10058568527894982 -0.49345107515076869 0.087719322748801329 -0.49345107515076869 0.087719322748801329 0.099966201904023777 0.0025997070765676677
16650000000 0.064987668483845282 0.10087915019980007 -0.49109084306016659 0.10009209266177201 -0.49109084306016659 0.10009209266177201 0.099950391602197916 0.0031494790945941105
16700000000 0.064533055841013695 0.10117057232130601 -0.48842042746734132 0.11240164226370342 -0.48842042746734132 0.11240164226370342 0.09993155780864782 0.0036991558411180953
16750000000 0.064077136406006555 0.10145994574217961 -0.48544151506401723 0.12464019657923173 -0.48544151506401723 0.12464019657923173 0.099909701093094327 0.0042487206884599766
16800000000 0.063619919411176812 0.101747264602619 -0.48215598739511639 0.13680002547513781 -0.48215598739511639 0.13680002547513781 0.099884822116701383 0.0047981570123250081
16850000000 0.063161414115152997 0.1020325230844271 -0.47856591967033474 0.14887344854286375 -0.47856591967033474 0.14887344854286375 0.099856921632056131 0.0053474481923063109
16900000000 0.062701629802651732 0.10231571541112937 -0.4746735794533945 0.16085283994962601 -0.4746735794533945 0.16085283994962601 0.099826000483146132 0.0058965776123875461
16950000000 0.062240575784289556 0.1025968358480909 -0.47048142522980274 0.17273063325505261 -0.47048142522980274 0.17273063325505261 0.099792059605333744 0.0064455286614456611
17000000000 0.06177826139639464 0.1028758787026324 -0.46599210485401932 0.18449932619031054 -0.46599210485401932 0.18449932619031054 0.099755100025327961 0.0069942847337532829
17050000000 0.061314696000817528 0.10315283832414565 -0.46120845387701487 0.19615148539669905 -0.46120845387701487 0.19615148539669905 0.099715122861153249 0.0075428292294810479
17100000000 0.060849888984741612 0.10342770910420777 -0.4561334937552764 0.20767975112071752 -0.4561334937552764 0.20767975112071752 0.099672129322115777 0.0080911455551998124
17150000000 0.060383849760493144 0.10370048547669482 -0.45077042994239053 0.21907684186264498 -0.45077042994239053 0.21907684186264498 0.099626120708766822 0.0086392171243825106
17200000000 0.059916587765350415 0.10397116191789461 -0.44512264986440991 0.2303355589756908 -0.44512264986440991 0.2303355589756908 0.099577098412863427 0.0091870273579059934
17250000000 0.059448112461352925 0.10423973294661845 -0.43919372078028324 0.24144879121281301 -0.43919372078028324 0.24144879121281301 0.099525063917326309 0.0097345596845524462
17300000000 0.058978433335109548 0.1045061931243122 -0.43298738752869698 0.25240951921833688 -0.43298738752869698 0.25240951921833688 0.099470018796194992 0.010281797541510762
17350000000 0.058507559897606504 0.10477053705516634 -0.42650757016275581 0.26321081996152801 -0.42650757016275581 0.26321081996152801 0.099411964714580192 0.010828724374877476
17400000000 0.058035501684014876 0.10503275938622533 -0.41975836147399243 0.27384587110932868 -0.41975836147399243 0.27384587110932868 0.099350903428613427 0.011375323640157607
17450000000 0.057562268253497327 0.10529285480749589 -0.41274402440727315 0.28430795533548875 -0.41274402440727315 0.28430795533548875 0.099286836785393989 0.011921578802765039
17500000000 0.05708786918901463 0.10555081805205468 -0.40546898936823056 0.29459046456337268 -0.40546898936823056 0.29459046456337268 0.099219766722932909 0.012467473338522781
17550000000 0.056612314097131695 0.10580664389615475 -0.39793785142492366 0.3046869041397634 -0.39793785142492366 0.3046869041397634 0.099149695270094484 0.01301299073416274
17600000000 0.0561356126078228 0.10606032715933156 -0.39015536740549589 0.3145908969370228 -0.39015536740549589 0.3145908969370228 0.099076624546534806 0.013558114487825288
17650000000 0.05565777437427688 0.10631186270450767 -0.38212645289365871 0.32429618738102423 -0.38212645289365871 0.32429618738102423 0.099000556762637693 0.014102828109558464
17700000000 0.055178809072701805 0.10656124543809686 -0.37385617912390467 0.33379664540230602 -0.37385617912390467 0.33379664540230602 0.09892149421944782 0.014647115121816729
17750000000 0.054698726402128542 0.10680847031010736 -0.36534976977840705 0.34308627030795463 -0.36534976977840705 0.34308627030795463 0.098839439308601076 0.015190959059959489
17800000000 0.054217536084214826 0.1070535323142439 -0.35661259768762971 0.35215919457177142 -0.35661259768762971 0.35215919457177142 0.098754394512252264 0.01573434347274906
17850000000 0.053735247863048112 0.10729642648800929 -0.34765018143673215 0.36100968754032792 -0.34765018143673215 0.36100968754032792 0.098666362402999974 0.016277251922848419
17900000000 0.053251871504948381 0.10753714791280483 -0.33846818187991379 0.36963215905256885 -0.33846818187991379 0.36963215905256885 0.09857534564380882 0.016819667987318324
17950000000 0.05276741679827044 0.10777569171402986 -0.32907239856489606 0.37802116297067828 -0.32907239856489606 0.37802116297067828 0.098481346987928819 0.017361575258114211
18000000000 0.05228189355320545 0.10801205306118061 -0.31946876606980479 0.3861714006199764 -0.31946876606980479 0.3861714006199764 0.098384369278812139 0.017902957342582435
18050000000 0.051795311601582593 0.10824622716794781 -0.30966335025476166 0.39407772413567704 -0.30966335025476166 0.39407772413567704 0.098284415450027085 0.018443797863956248
18100000000 0.051307680796669745 0.10847820929231385 -0.29966234443055906 0.40173513971438812 -0.29966234443055906 0.40173513971438812 0.098181488525169364 0.018984080461851103
18150000000 0.05081901101297405 0.10870799473664861 -0.28947206544683168 0.40913881076830538 -0.28947206544683168 0.40913881076830538 0.098075591617770602 0.019523788792759608
18200000000 0.050329312146041916 0.10893557884780471 -0.27909894970219706 0.41628406098010579 -0.27909894970219706 0.41628406098010579 0.097966727931204159 0.020062906530545946
18250000000 0.049838594112258654 0.10916095701721168 -0.26854954907889111 0.42316637725660844 -0.26854954907889111 0.42316637725660844 0.09785490075858827 0.020601417366939621
18300000000 0.049346866848647718 0.10938412468096928 -0.25783052680445706 0.42978141257934149 -0.25783052680445706 0.42978141257934149 0.097740113482686367 0.02113930501202892
18350000000 0.04885414031266936 0.10960507731993994 -0.24694865324310841 0.43612498875021249 -0.24694865324310841 0.43612498875021249 0.097622369575804807 0.021676553194753576
18400000000 0.048360424482019097 0.1098238104598403 -0.23591080161942257 0.44219309903054732 -0.23591080161942257 0.44219309903054732 0.097501672599687783 0.022213145663397049
18450000000 0.047865729354425679 0.1100403196713317 -0.22472394367706294 0.44798191067183307 -0.22472394367706294 0.44798191067183307 0.097378026205409612 0.022749066186078064
18500000000 0.047370064947448443 0.11025460057011008 -0.21339514527527867 0.45348776733656299 -0.21339514527527867 0.45348776733656299 0.097251434133264314 0.02328429855124169
18550000000 0.046873441298274775 0.11046664881699449 -0.20193156192595546 0.45870719140765825 -0.20193156192595546 0.45870719140765825 0.097121900212652379 0.023818826568149678
18600000000 0.046375868463516566 0.1106764601180152 -0.19034043427403943 0.46363688618500581 -0.19034043427403943 0.46363688618500581 0.096989428361965085 0.024352634067370298
18650000000 0.0458773565190067 0.11088403022450055 -0.17862908352419327 0.46827373796772409 -0.17862908352419327 0.46827373796772409 0.09685402258846576 0.024885704901267382
18700000000 0.045377915559595056 0.11108935493316296 -0.16680490681656462 0.47261481802084365 -0.16680490681656462 0.47261481802084365 0.096715686988168778 0.025418022944488878
18750000000 0.044877555698943979 0.11129243008618411 -0.15487537255459433 0.47665738442515876 -0.15487537255459433 0.47665738442515876 0.096574425745715453 0.025949572094454556
18800000000 0.044376287069323526 0.11149325157129909 -0.14284801568781316 0.48039888380908241 -0.14284801568781316 0.48039888380908241 0.096430243134247612 0.026480336271843152
18850000000 0.043874119821406384 0.11169181532187968 -0.13073043295260448 0.48383695296141094 -0.13073043295260448 0.48383695296141094 0.096283143515278266 0.027010299421078798
18900000000 0.043371064124062081 0.11188811731701671 -0.11853027807394527 0.48696942032397805 -0.11853027807394527 0.48696942032397805 0.096133131338559663 0.027539445510816624
18950000000 0.042867130164151342 0.11208215358160149 -0.10625525693114812 0.48979430736325802 -0.10625525693114812 0.48979430736325802 0.095980211141948713 0.028067758534427778
19000000000 0.042362328146319649 0.11227392018640631 -0.093913122690660961 0.49230982982005028 -0.093913122690660961 0.49230982982005028 0.095824387551269707 0.028595222510483572
19050000000 0.041856668292790548 0.11246341324816396 -0.08151167090900574 0.49451439883645443 -0.08151167090900574 0.49451439883645443 0.095665665280174395 0.029121821483238958
19100000000 0.041350160843158873 0.1126506289296464 -0.069058734608931679 0.49640662195942864 -0.069058734608931679 0.49640662195942864 0.095504049129999324 0.029647539523115159
19150000000 0.040842816054183134 0.11283556343974252 -0.056562179331915138 0.49798530402029162 -0.056562179331915138 0.49798530402029162 0.095339543989620759 0.030172360727181571
19200000000 0.040334644199577947 0.11301821303353479 -0.044029898170113192 0.49924944788961706 -0.044029898170113192 0.49924944788961706 0.095172154835306638 0.030696269219636786
19250000000 0.039825655569806079 0.11319857401237514 -0.031469806780916147 0.5001982551070423 -0.031469806780916147 0.5001982551070423 0.095001886730566115 0.031219249152288832
19300000000 0.03931586047186978 0.11337664272395996 -0.0188898383872513 0.50083112638559268 -0.0188898383872513 0.50083112638559268 0.094828744825996375 0.031741284705034671
19350000000 0.038805269229102463 0.11355241556240393 -0.0062979387667880544 0.501147661990204 -0.0062979387667880544 0.501147661990204 0.094652734359126814 0.032262360086338614
19400000000 0.038293892180959292 0.11372588896831302 0.0062979387667874255 0.501147661990204 0.0062979387667874255 0.501147661990204 0.094473860654260666 0.032782459533710104
19450000000 0.037781739682808034 0.11389705942885675 0.018889838387250672 0.50083112638559268 0.018889838387250672 0.50083112638559268 0.094292129122313828 0.03330156731418054
19500000000 0.037268822105719274 0.11406592347783912 0.031469806780915509 0.5001982551070423 0.031469806780915509 0.5001982551070423 0.094107545260651307 0.033819667724779123
19550000000 0.036755149836256384 0.1142324776957689 0.044029898170112568 0.49924944788961712 0.044029898170112568 0.49924944788961712 0.093920114652920828 0.034336745093007978
19600000000 0.036240733276265334 0.11439671870992889 0.056562179331914521 0.49798530402029167 0.056562179331914521 0.49798530402029167 0.093729842968883981 0.034852783777316119
19650000000 0.035725582842663854 0.11455864319444413 0.069058734608931055 0.4964066219594287 0.069058734608931055 0.4964066219594287 0.093536735964244722 0.0353677681675727
19700000000 0.035209708967230587 0.11471824787034939 0.081511670909005116 0.49451439883645454 0.081511670909005116 0.49451439883645454 0.093340799480475203 0.035881682685539165
19750000000 0.034693122096393969 0.11487552950565538 0.09391312269066078 0.49230982982005028 0.09391312269066078 0.49230982982005028 0.093142039444639113 0.036394511785340582
19800000000 0.034175832691020376 0.1150304849154144 0.10625525693114751 0.48979430736325813 0.10625525693114751 0.48979430736325813 0.092940461869212371 0.03690623995393575
19850000000 0.03365785122620267 0.1151831109617847 0.11853027807394466 0.48696942032397816 0.11853027807394466 0.48696942032397816 0.092736072851901274 0.037416851711586603
19900000000 0.033139188191047775 0.11533340455409404 0.13073043295260386 0.48383695296141105 0.13073043295260386 0.48383695296141105 0.09252887857545801 0.037926331612326392
19950000000 0.03261985408846442 0.11548136264890231 0.14284801568781255 0.48039888380908263 0.14284801568781255 0.48039888380908263 0.092318885307493645 0.038434664244427007
20000000000 0.03209985943495048 0.11562698225006315 0.15487537255459374 0.47665738442515893 0.15487537255459374 0.47665738442515893 0.092106099400288508 0.038941834230865065
