! IDEAL DEMO ONLY: shared kit for RF and IF; not a real Keysight standard
# Hz S RI R 50
0 1 0
5000000000 1 0
5050000000 1 0
5100000000 1 0
5150000000 1 0
5200000000 1 0
5250000000 1 0
5300000000 1 0
5350000000 1 0
5400000000 1 0
5450000000 1 0
5500000000 1 0
5550000000 1 0
5600000000 1 0
5650000000 1 0
5700000000 1 0
5750000000 1 0
5800000000 1 0
5850000000 1 0
5900000000 1 0
5950000000 1 0
6000000000 1 0
6050000000 1 0
6100000000 1 0
6150000000 1 0
6200000000 1 0
6250000000 1 0
6300000000 1 0
6350000000 1 0
6400000000 1 0
6450000000 1 0
6500000000 1 0
6550000000 1 0
6600000000 1 0
6650000000 1 0
6700000000 1 0
6750000000 1 0
6800000000 1 0
6850000000 1 0
6900000000 1 0
6950000000 1 0
7000000000 1 0
7050000000 1 0
7100000000 1 0
7150000000 1 0
7200000000 1 0
7250000000 1 0
7300000000 1 0
7350000000 1 0
7400000000 1 0
7450000000 1 0
7500000000 1 0
7550000000 1 0
7600000000 1 0
7650000000 1 0
7700000000 1 0
7750000000 1 0
7800000000 1 0
7850000000 1 0
7900000000 1 0
7950000000 1 0
8000000000 1 0
8050000000 1 0
8100000000 1 0
8150000000 1 0
8200000000 1 0
8250000000 1 0
8300000000 1 0
8350000000 1 0
8400000000 1 0
8450000000 1 0
8500000000 1 0
8550000000 1 0
8600000000 1 0
8650000000 1 0
8700000000 1 0
8750000000 1 0
8800000000 1 0
8850000000 1 0
8900000000 1 0
8950000000 1 0
9000000000 1 0
9050000000 1 0
9100000000 1 0
9150000000 1 0
9200000000 1 0
9250000000 1 0
9300000000 1 0
9350000000 1 0
9400000000 1 0
9450000000 1 0
9500000000 1 0
9550000000 1 0
9600000000 1 0
9650000000 1 0
9700000000 1 0
9750000000 1 0
9800000000 1 0
9850000000 1 0
9900000000 1 0
9950000000 1 0
10000000000 1 0
10050000000 1 0
10100000000 1 0
10150000000 1 0
10200000000 1 0
10250000000 1 0
10300000000 1 0
10350000000 1 0
10400000000 1 0
10450000000 1 0
10500000000 1 0
10550000000 1 0
10600000000 1 0
10650000000 1 0
10700000000 1 0
10750000000 1 0
10800000000 1 0
10850000000 1 0
10900000000 1 0
10950000000 1 0
11000000000 1 0
11050000000 1 0
11100000000 1 0
11150000000 1 0
11200000000 1 0
11250000000 1 0
11300000000 1 0
11350000000 1 0
11400000000 1 0
11450000000 1 0
11500000000 1 0
11550000000 1 0
11600000000 1 0
11650000000 1 0
11700000000 1 0
11750000000 1 0
11800000000 1 0
11850000000 1 0
11900000000 1 0
11950000000 1 0
12000000000 1 0
12050000000 1 0
12100000000 1 0
12150000000 1 0
12200000000 1 0
12250000000 1 0
12300000000 1 0
12350000000 1 0
12400000000 1 0
12450000000 1 0
12500000000 1 0
12550000000 1 0
12600000000 1 0
12650000000 1 0
12700000000 1 0
12750000000 1 0
12800000000 1 0
12850000000 1 0
12900000000 1 0
12950000000 1 0
13000000000 1 0
13050000000 1 0
13100000000 1 0
13150000000 1 0
13200000000 1 0
13250000000 1 0
13300000000 1 0
13350000000 1 0
13400000000 1 0
13450000000 1 0
13500000000 1 0
13550000000 1 0
13600000000 1 0
13650000000 1 0
13700000000 1 0
13750000000 1 0
13800000000 1 0
13850000000 1 0
13900000000 1 0
13950000000 1 0
14000000000 1 0
14050000000 1 0
14100000000 1 0
14150000000 1 0
14200000000 1 0
14250000000 1 0
14300000000 1 0
14350000000 1 0
14400000000 1 0
14450000000 1 0
14500000000 1 0
14550000000 1 0
14600000000 1 0
14650000000 1 0
14700000000 1 0
14750000000 1 0
14800000000 1 0
14850000000 1 0
14900000000 1 0
14950000000 1 0
15000000000 1 0
15050000000 1 0
15100000000 1 0
15150000000 1 0
15200000000 1 0
15250000000 1 0
15300000000 1 0
15350000000 1 0
15400000000 1 0
15450000000 1 0
15500000000 1 0
15550000000 1 0
15600000000 1 0
15650000000 1 0
15700000000 1 0
15750000000 1 0
15800000000 1 0
15850000000 1 0
15900000000 1 0
15950000000 1 0
16000000000 1 0
16050000000 1 0
16100000000 1 0
16150000000 1 0
16200000000 1 0
16250000000 1 0
16300000000 1 0
16350000000 1 0
16400000000 1 0
16450000000 1 0
16500000000 1 0
16550000000 1 0
16600000000 1 0
16650000000 1 0
16700000000 1 0
16750000000 1 0
16800000000 1 0
16850000000 1 0
16900000000 1 0
16950000000 1 0
17000000000 1 0
17050000000 1 0
17100000000 1 0
17150000000 1 0
17200000000 1 0
17250000000 1 0
17300000000 1 0
17350000000 1 0
17400000000 1 0
17450000000 1 0
17500000000 1 0
17550000000 1 0
17600000000 1 0
17650000000 1 0
17700000000 1 0
17750000000 1 0
17800000000 1 0
17850000000 1 0
17900000000 1 0
17950000000 1 0
18000000000 1 0
18050000000 1 0
18100000000 1 0
18150000000 1 0
18200000000 1 0
18250000000 1 0
18300000000 1 0
18350000000 1 0
18400000000 1 0
18450000000 1 0
18500000000 1 0
18550000000 1 0
18600000000 1 0
18650000000 1 0
18700000000 1 0
18750000000 1 0
18800000000 1 0
18850000000 1 0
18900000000 1 0
18950000000 1 0
19000000000 1 0
19050000000 1 0
19100000000 1 0
19150000000 1 0
19200000000 1 0
19250000000 1 0
19300000000 1 0
19350000000 1 0
19400000000 1 0
19450000000 1 0
19500000000 1 0
19550000000 1 0
19600000000 1 0
19650000000 1 0
19700000000 1 0
19750000000 1 0
19800000000 1 0
19850000000 1 0
19900000000 1 0
19950000000 1 0
20000000000 1 0
35000000000 1 0
